#### MnO AFM

nsym 1

ecut   5

##### K-POINTS
kptopt  3
ngkpt   3*2
shiftk  0.5 0.5 0.5
chksymbreak 0

# mixing
diemix    0.5
diemixmag 0.4
diemac 12

# crystal def.
natom  4 
ntypat 2 
typat  1 1 2 2
znucl  25 8

chkprim 0
acell 3*4.50 Angstrom
rprim 0.0 1/2 1/2
      1/2 0.0 1/2
      1.0 1.0 0.0
xred 
0 0 0
0.0 0.0 0.5
0.5 0.5 0.25
0.5 0.5 0.75

# Magnetism
so_psp  1 1
nsppol  1
nspden  4
nspinor 2
prtdensph 1
spinmagntarget 0

ndtset 3

spinat1
 5  5  5
-5 -5 -5
6*0

# dataset 1: GS
iscf1    7
tolwfr1  1.0E-10
nstep1   12
nline1   8 

# dataset 2: ddk
getwfk2  -1
iscf2   -3
tolwfr2  1.0E-10
rfelfd2  2
rfdir2   1 1 1
nqpt2    1
qpt2     0.0 0.0 0.0
nband2   42
nline2   10
nstep2   12

# dataset 3: phonons+E-field
rfphon3  1
rfelfd3  3
getddk3  -1
rfatpol3 1 2
getwfk3  -2
kptopt3  3
iscf3    7
tolvrs3  1.0E-08
rfdir3   1 1 1
nqpt3    1
qpt3     0.0 0.0 0.0
nband3   42
nstep3   12
prtwf3   0
prtpot3  0


# printing options
prtden  0
prteig  0

## After modifying the following section, one might need to regenerate the pickle database with runtests.py -r
#%%<BEGIN TEST_INFO>
#%% [setup]
#%% executable = abinit
#%% [files]
#%% files_to_test = 
#%%    t70.out,  tolnlines =0, tolabs =0, tolrel = 0, fld_options=-medium ;
#%% psp_files = Mn-sp-r_LDA_1012_dojov0.4.psp8,O-r_LDA_1012_dojov0.4.psp8
#%% [paral_info]
#%% max_nprocs = 1
#%% [extra_info]
#%% authors = E. Bousquet
#%% keywords = DFPT, non-collinear, SOC
#%% description = DFPT in non-collinear magnetism
#%%<END TEST_INFO>
