# Crystalline silicon calculation of the GW corrections.
# Using analytic continuation for Sigma
# Calculation of the Self-Energy matrix elements with Analytic Continuation
#

gwcalctyp   1

ecut      12.0
#ecutwfn    5.0
ecutwfn    12.0
ecutsigx   3.0
ecuteps    3.0

# Calculation of the Self-Energy matrix elements (GW corrections)
optdriver    4        # Self-Energy calculation
getwfk_filepath "./t54o_DS1_WFK"
getscr_filepath "./t55o_SCR"
nband       25
nomegasi    -10       # Using minimax mesh

nkptgw  2
kptgw
    0.00000000E+00  0.00000000E+00  0.00000000E+00
    5.00000000E-01  5.00000000E-01  0.00000000E+00

bdgw
    1  7    # Enclose all the degenerate states.
    1  7    # Enclose all the degenerate states.


# Data common to the three different datasets
# Definition of the unit cell: fcc
acell  3*10.217
rprim  0.0  0.5  0.5   # FCC primitive vectors (to be scaled by acell)
       0.5  0.0  0.5
       0.5  0.5  0.0

# Definition of the atom types
ntypat  1
znucl 14

# Definition of the atoms
natom 2
typat  1 1
xred
      0.0  0.0  0.0
      0.25 0.25 0.25

# Definition of the k-point grid
ngkpt   2 2 2
nshiftk 4
shiftk
        0.0 0.0 0.0
        0.0 0.5 0.5
        0.5 0.0 0.5
        0.5 0.5 0.0

# Definition of the SCF procedure
nstep   500       # Maximal number of SCF cycles
diemac  12.0

 pp_dirpath "$ABI_PSPDIR"
 pseudos "14si.psp"

#%%<BEGIN TEST_INFO>
#%% [setup]
#%% executable = abinit
#%% test_chain = t54.abi, t55.abi, t56.abi
#%% [files]
#%% files_to_test =
#%%   t56.abo, tolnlines = 20, tolabs = 2.0e-2, tolrel = 5.0e-1, fld_options = -ridiculous;
#%% [paral_info]
#%% max_nprocs = 8
#%% [extra_info]
#%% authors = H. Tsai, M. Giantomassi
#%% keywords = GW, AC
#%% description =
#%%   Calculation of the Self-Energy matrix elements with Analytic Continuation
#%%<END TEST_INFO>
