#NaF Berry phase calculation with GGA
#
#Primitive cell definition
#*************************
   acell 3*4.62 angstrom
   rprim 0.0 0.5 0.5
         0.5 0.0 0.5
         0.5 0.5 0.0

#Atom definition
#***************
   natom 2
   ntypat 2
   znucl 11 9 
   typat 1 2

#SCF parameters
#**************
   iscf 17
   nstep 100


#Planewave basis
#***************
   usepaw 1
   pawecutdg 80.

   ecut  40.
   kptopt 1 
   ngkpt 6 6 6 
   nshiftk 4
   shiftk 0.5 0.5 0.5
          0.5 0.0 0.0
          0.0 0.5 0.0
          0.0 0.0 0.5
   toldfe 1.0d-12

# Berry phase calculation of the polarization
#********************************************
   berryopt -1
   rfdir 1 1 1

ndtset 3
jdtset 1 2 3

 xcart1   0.0000000000E+00  0.0000000000E+00  0.0000000000E+00
          4.3652673487E+00  4.3652673487E+00  4.3652673487E+00

 xcart2   1.0000000000E-02  0.0000000000E+00  0.0000000000E+00
          4.3652673487E+00  4.3652673487E+00  4.3652673487E+00

 xcart3  -1.0000000000E-02  0.0000000000E+00  0.0000000000E+00
          4.3652673487E+00  4.3652673487E+00  4.3652673487E+00



nbdbuf 0

