#ABINIT - INPUT FILE
#GOLD 107 ATOMS (one vacancy)

#Process distribution (parallelism) - TO BE ADAPTED
# autoparal 1
  npkpt 1 npband 8 npfft 4   # 32 MPI processes
# npkpt 1 npband 8 npfft 8   # 64 MPI processes -1
# npkpt 1 npband 16 npfft 4  # 64 MPI processes -2
# npkpt 1 npband 16 npfft 8  # 128 MPI processes
paral_kgb 1
bandpp 2

#Plane wave basis
ecut 8.
pawecutdg 10.

#Self-consistent cycle parameters
toldfe 1.d-5
nstep 20

#K-points and symetries
nkpt 1
kpt 3*0.
kptopt 0
istwfk *1
nsym 0
chksymbreak 0

#Electronic configuration
nband 640
occopt 3
tsmear 0.002 hartree

#Activation/deactivation of I/O
optforces 2
optstress 1
prtwf 0
prtden 0
prteig 0
timopt 0

#Simulation cell
acell  3*23.01
rprim 1. 0. 0. 0. 1. 0. 0. 0. 1.
natom 107
ntypat 1
typat 107*1
znucl 79.
chkprim 0

#Atomic positions
xred
        0.0000000000E+00  1.6326095981E-01  1.6326095981E-01
        1.6326095981E-01  0.0000000000E+00  1.6326095981E-01
        1.6326095981E-01  1.6326095981E-01  0.0000000000E+00
        0.0000000000E+00  1.6641506689E-01  5.0000000000E-01
        1.6641506689E-01  0.0000000000E+00  5.0000000000E-01
        1.6596912386E-01  1.6596912386E-01  3.3213568011E-01
        0.0000000000E+00  0.0000000000E+00  3.3251308046E-01
        0.0000000000E+00  1.6326095981E-01  8.3673904019E-01
        1.6326095981E-01  0.0000000000E+00  8.3673904019E-01
        1.6596912386E-01  1.6596912386E-01  6.6786431989E-01
        0.0000000000E+00  0.0000000000E+00  6.6748691954E-01
        0.0000000000E+00  5.0000000000E-01  1.6641506689E-01
        1.6596912386E-01  3.3213568011E-01  1.6596912386E-01
        1.6641506689E-01  5.0000000000E-01  0.0000000000E+00
        0.0000000000E+00  3.3251308046E-01  0.0000000000E+00
        0.0000000000E+00  5.0000000000E-01  5.0000000000E-01
        1.6649623194E-01  3.3291657817E-01  5.0000000000E-01
        1.6649623194E-01  5.0000000000E-01  3.3291657817E-01
        0.0000000000E+00  3.3314040855E-01  3.3314040855E-01
        0.0000000000E+00  5.0000000000E-01  8.3358493311E-01
        1.6596912386E-01  3.3213568011E-01  8.3403087614E-01
        1.6649623194E-01  5.0000000000E-01  6.6708342183E-01
        0.0000000000E+00  3.3314040855E-01  6.6685959145E-01
        0.0000000000E+00  8.3673904019E-01  1.6326095981E-01
        1.6596912386E-01  6.6786431989E-01  1.6596912386E-01
        1.6326095981E-01  8.3673904019E-01  0.0000000000E+00
        0.0000000000E+00  6.6748691954E-01  0.0000000000E+00
        0.0000000000E+00  8.3358493311E-01  5.0000000000E-01
        1.6649623194E-01  6.6708342183E-01  5.0000000000E-01
        1.6596912386E-01  8.3403087614E-01  3.3213568011E-01
        0.0000000000E+00  6.6685959145E-01  3.3314040855E-01
        0.0000000000E+00  8.3673904019E-01  8.3673904019E-01
        1.6596912386E-01  6.6786431989E-01  8.3403087614E-01
        1.6596912386E-01  8.3403087614E-01  6.6786431989E-01
        0.0000000000E+00  6.6685959145E-01  6.6685959145E-01
        3.3213568011E-01  1.6596912386E-01  1.6596912386E-01
        5.0000000000E-01  0.0000000000E+00  1.6641506689E-01
        5.0000000000E-01  1.6641506689E-01  0.0000000000E+00
        3.3251308046E-01  0.0000000000E+00  0.0000000000E+00
        3.3291657817E-01  1.6649623194E-01  5.0000000000E-01
        5.0000000000E-01  0.0000000000E+00  5.0000000000E-01
        5.0000000000E-01  1.6649623194E-01  3.3291657817E-01
        3.3314040855E-01  0.0000000000E+00  3.3314040855E-01
        3.3213568011E-01  1.6596912386E-01  8.3403087614E-01
        5.0000000000E-01  0.0000000000E+00  8.3358493311E-01
        5.0000000000E-01  1.6649623194E-01  6.6708342183E-01
        3.3314040855E-01  0.0000000000E+00  6.6685959145E-01
        3.3291657817E-01  5.0000000000E-01  1.6649623194E-01
        5.0000000000E-01  3.3291657817E-01  1.6649623194E-01
        5.0000000000E-01  5.0000000000E-01  0.0000000000E+00
        3.3314040855E-01  3.3314040855E-01  0.0000000000E+00
        3.3316116420E-01  5.0000000000E-01  5.0000000000E-01
        5.0000000000E-01  3.3316116420E-01  5.0000000000E-01
        5.0000000000E-01  5.0000000000E-01  3.3316116420E-01
        3.3302887829E-01  3.3302887829E-01  3.3302887829E-01
        3.3291657817E-01  5.0000000000E-01  8.3350376806E-01
        5.0000000000E-01  3.3291657817E-01  8.3350376806E-01
        5.0000000000E-01  5.0000000000E-01  6.6683883580E-01
        3.3302887829E-01  3.3302887829E-01  6.6697112171E-01
        3.3213568011E-01  8.3403087614E-01  1.6596912386E-01
        5.0000000000E-01  6.6708342183E-01  1.6649623194E-01
        5.0000000000E-01  8.3358493311E-01  0.0000000000E+00
        3.3314040855E-01  6.6685959145E-01  0.0000000000E+00
        3.3291657817E-01  8.3350376806E-01  5.0000000000E-01
        5.0000000000E-01  6.6683883580E-01  5.0000000000E-01
        5.0000000000E-01  8.3350376806E-01  3.3291657817E-01
        3.3302887829E-01  6.6697112171E-01  3.3302887829E-01
        3.3213568011E-01  8.3403087614E-01  8.3403087614E-01
        5.0000000000E-01  6.6708342183E-01  8.3350376806E-01
        5.0000000000E-01  8.3350376806E-01  6.6708342183E-01
        3.3302887829E-01  6.6697112171E-01  6.6697112171E-01
        6.6786431989E-01  1.6596912386E-01  1.6596912386E-01
        8.3673904019E-01  0.0000000000E+00  1.6326095981E-01
        8.3673904019E-01  1.6326095981E-01  0.0000000000E+00
        6.6748691954E-01  0.0000000000E+00  0.0000000000E+00
        6.6708342183E-01  1.6649623194E-01  5.0000000000E-01
        8.3358493311E-01  0.0000000000E+00  5.0000000000E-01
        8.3403087614E-01  1.6596912386E-01  3.3213568011E-01
        6.6685959145E-01  0.0000000000E+00  3.3314040855E-01
        6.6786431989E-01  1.6596912386E-01  8.3403087614E-01
        8.3673904019E-01  0.0000000000E+00  8.3673904019E-01
        8.3403087614E-01  1.6596912386E-01  6.6786431989E-01
        6.6685959145E-01  0.0000000000E+00  6.6685959145E-01
        6.6708342183E-01  5.0000000000E-01  1.6649623194E-01
        8.3403087614E-01  3.3213568011E-01  1.6596912386E-01
        8.3358493311E-01  5.0000000000E-01  0.0000000000E+00
        6.6685959145E-01  3.3314040855E-01  0.0000000000E+00
        6.6683883580E-01  5.0000000000E-01  5.0000000000E-01
        8.3350376806E-01  3.3291657817E-01  5.0000000000E-01
        8.3350376806E-01  5.0000000000E-01  3.3291657817E-01
        6.6697112171E-01  3.3302887829E-01  3.3302887829E-01
        6.6708342183E-01  5.0000000000E-01  8.3350376806E-01
        8.3403087614E-01  3.3213568011E-01  8.3403087614E-01
        8.3350376806E-01  5.0000000000E-01  6.6708342183E-01
        6.6697112171E-01  3.3302887829E-01  6.6697112171E-01
        6.6786431989E-01  8.3403087614E-01  1.6596912386E-01
        8.3403087614E-01  6.6786431989E-01  1.6596912386E-01
        8.3673904019E-01  8.3673904019E-01  0.0000000000E+00
        6.6685959145E-01  6.6685959145E-01  0.0000000000E+00
        6.6708342183E-01  8.3350376806E-01  5.0000000000E-01
        8.3350376806E-01  6.6708342183E-01  5.0000000000E-01
        8.3403087614E-01  8.3403087614E-01  3.3213568011E-01
        6.6697112171E-01  6.6697112171E-01  3.3302887829E-01
        6.6786431989E-01  8.3403087614E-01  8.3403087614E-01
        8.3403087614E-01  6.6786431989E-01  8.3403087614E-01
        8.3403087614E-01  8.3403087614E-01  6.6786431989E-01
        6.6697112171E-01  6.6697112171E-01  6.6697112171E-01

#%%<BEGIN TEST_INFO>
#%% [setup]
#%% executable = abinit
#%% [files]
#%% psp_files = au.hpc.paw
#%% [paral_info]
#%% nprocs_to_test = 32, 64, 128
#%% max_nprocs = 128
#%% [NCPU_32]
#%% files_to_test = t01_MPI32.out, tolnlines=   0,   tolabs=  0.0,      tolrel= 0.0
#%% [NCPU_64]
#%% files_to_test = t01_MPI64.out, tolnlines=   0,   tolabs=  0.0,      tolrel= 0.0
#%% [NCPU_128]
#%% files_to_test = t01_MPI128.out, tolnlines=   0,   tolabs=  0.0,      tolrel= 0.0
#%% [extra_info]
#%% keywords = PAW,HPC
#%% authors = M. Torrent
#%% description = 107 gold atoms (one vacancy) - HPC test
#%%<END TEST_INFO>
