# ABINIT -INPUT FILE
# UO2 96 ATOMS

#Process distribution (parallelism) - TO BE ADAPTED
#npkpt 2 npband 8 npfft 8    # 128 MPI processes
#npkpt 2 npband 16 npfft 8   # 256 MPI processes
#npkpt 2 npband 16 npfft 16  # 512 MPI processes
 npkpt 2 npband 16 npfft 32  # 1024 MPI processes
np_slk 64

# Algorithm for the wavefunctions determination
paral_kgb 1
wfoptalg 1
fftalg 402
nline 6

#Plane wave basis
ecut 6. 
pawecutdg 10.

#Self-consistent cycle parameters
toldfe 1.d-5
nstep 28
#diemac 500.

#K-points and symetries
nkpt 1
kpt 0.5 0.5 0.5
kptopt 0
istwfk *1
nsym 0
maxnsym 2048
chksymbreak 0

#Electronic configuration
nsppol 2
nband 448
nbdbuf 20
occopt 3
tsmear 0.0005 hartree

#Activation/deactivation of I/O
optforces 2
optstress 1
prtwf 0
prtden 0
prteig 0
timopt 0

#Simulation cell
acell 3*11. angstrom
rprim 1. 0. 0. 0. 1. 0. 0. 0. 1. 
natom 96
ntypat 2
typat 32*1 64*2
znucl 92. 8.
chkprim 0

#Atomic positions
xred
   0.00000000000000   0.00000000000000   0.00000000000000
   0.25000000000000   0.25000000000000   0.00000000000000
   0.25000000000000   0.00000000000000   0.25000000000000
   0.00000000000000   0.25000000000000   0.25000000000000
   0.00000000000000   0.00000000000000   0.50000000000000
   0.25000000000000   0.25000000000000   0.50000000000000
   0.25000000000000   0.00000000000000   0.75000000000000
   0.00000000000000   0.25000000000000   0.75000000000000
   0.00000000000000   0.50000000000000   0.00000000000000
   0.25000000000000   0.75000000000000   0.00000000000000
   0.25000000000000   0.50000000000000   0.25000000000000
   0.00000000000000   0.75000000000000   0.25000000000000
   0.00000000000000   0.50000000000000   0.50000000000000
   0.25000000000000   0.75000000000000   0.50000000000000
   0.25000000000000   0.50000000000000   0.75000000000000
   0.00000000000000   0.75000000000000   0.75000000000000
   0.50000000000000   0.00000000000000   0.00000000000000
   0.75000000000000   0.25000000000000   0.00000000000000
   0.75000000000000   0.00000000000000   0.25000000000000
   0.50000000000000   0.25000000000000   0.25000000000000
   0.50000000000000   0.00000000000000   0.50000000000000
   0.75000000000000   0.25000000000000   0.50000000000000
   0.75000000000000   0.00000000000000   0.75000000000000
   0.50000000000000   0.25000000000000   0.75000000000000
   0.50000000000000   0.50000000000000   0.00000000000000
   0.75000000000000   0.75000000000000   0.00000000000000
   0.75000000000000   0.50000000000000   0.25000000000000
   0.50000000000000   0.75000000000000   0.25000000000000
   0.50000000000000   0.50000000000000   0.50000000000000
   0.75000000000000   0.75000000000000   0.50000000000000
   0.75000000000000   0.50000000000000   0.75000000000000
   0.50000000000000   0.75000000000000   0.75000000000000
   0.12500000000000   0.12500000000000   0.12500000000000
   0.12500000000000   0.37500000000000   0.12500000000000
   0.37500000000000   0.12500000000000   0.12500000000000
   0.37500000000000   0.37500000000000   0.12500000000000
   0.12500000000000   0.12500000000000   0.37500000000000
   0.12500000000000   0.37500000000000   0.37500000000000
   0.37500000000000   0.12500000000000   0.37500000000000
   0.37500000000000   0.37500000000000   0.37500000000000
   0.12500000000000   0.12500000000000   0.62500000000000
   0.12500000000000   0.37500000000000   0.62500000000000
   0.37500000000000   0.12500000000000   0.62500000000000
   0.37500000000000   0.37500000000000   0.62500000000000
   0.12500000000000   0.12500000000000   0.87500000000000
   0.12500000000000   0.37500000000000   0.87500000000000
   0.37500000000000   0.12500000000000   0.87500000000000
   0.37500000000000   0.37500000000000   0.87500000000000
   0.12500000000000   0.62500000000000   0.12500000000000
   0.12500000000000   0.87500000000000   0.12500000000000
   0.37500000000000   0.62500000000000   0.12500000000000
   0.37500000000000   0.87500000000000   0.12500000000000
   0.12500000000000   0.62500000000000   0.37500000000000
   0.12500000000000   0.87500000000000   0.37500000000000
   0.37500000000000   0.62500000000000   0.37500000000000
   0.37500000000000   0.87500000000000   0.37500000000000
   0.12500000000000   0.62500000000000   0.62500000000000
   0.12500000000000   0.87500000000000   0.62500000000000
   0.37500000000000   0.62500000000000   0.62500000000000
   0.37500000000000   0.87500000000000   0.62500000000000
   0.12500000000000   0.62500000000000   0.87500000000000
   0.12500000000000   0.87500000000000   0.87500000000000
   0.37500000000000   0.62500000000000   0.87500000000000
   0.37500000000000   0.87500000000000   0.87500000000000
   0.62500000000000   0.12500000000000   0.12500000000000
   0.62500000000000   0.37500000000000   0.12500000000000
   0.87500000000000   0.12500000000000   0.12500000000000
   0.87500000000000   0.37500000000000   0.12500000000000
   0.62500000000000   0.12500000000000   0.37500000000000
   0.62500000000000   0.37500000000000   0.37500000000000
   0.87500000000000   0.12500000000000   0.37500000000000
   0.87500000000000   0.37500000000000   0.37500000000000
   0.62500000000000   0.12500000000000   0.62500000000000
   0.62500000000000   0.37500000000000   0.62500000000000
   0.87500000000000   0.12500000000000   0.62500000000000
   0.87500000000000   0.37500000000000   0.62500000000000
   0.62500000000000   0.12500000000000   0.87500000000000
   0.62500000000000   0.37500000000000   0.87500000000000
   0.87500000000000   0.12500000000000   0.87500000000000
   0.87500000000000   0.37500000000000   0.87500000000000
   0.62500000000000   0.62500000000000   0.12500000000000
   0.62500000000000   0.87500000000000   0.12500000000000
   0.87500000000000   0.62500000000000   0.12500000000000
   0.87500000000000   0.87500000000000   0.12500000000000
   0.62500000000000   0.62500000000000   0.37500000000000
   0.62500000000000   0.87500000000000   0.37500000000000
   0.87500000000000   0.62500000000000   0.37500000000000
   0.87500000000000   0.87500000000000   0.37500000000000
   0.62500000000000   0.62500000000000   0.62500000000000
   0.62500000000000   0.87500000000000   0.62500000000000
   0.87500000000000   0.62500000000000   0.62500000000000
   0.87500000000000   0.87500000000000   0.62500000000000
   0.62500000000000   0.62500000000000   0.87500000000000
   0.62500000000000   0.87500000000000   0.87500000000000
   0.87500000000000   0.62500000000000   0.87500000000000
   0.87500000000000   0.87500000000000   0.87500000000000

#Initial magnetizations
spinat
   2*0 1 2*0 1 2*0 1 2*0 1 2*0 1 2*0 1 2*0 1 2*0 1
   2*0 1 2*0 1 2*0 1 2*0 1 2*0 1 2*0 1 2*0 1 2*0 1
   2*0 1 2*0 1 2*0 1 2*0 1 2*0 1 2*0 1 2*0 1 2*0 1
   2*0 1 2*0 1 2*0 1 2*0 1 2*0 1 2*0 1 2*0 1 2*0 1
   192*0

#%%<BEGIN TEST_INFO>
#%% [setup]
#%% executable = abinit
#%% [files]
#%% psp_files = u.hpc.paw, o.hpc.paw
#%% [paral_info]
#%% nprocs_to_test = 128, 256, 512, 1024
#%% max_nprocs = 1024
#%% [NCPU_128]
#%% files_to_test = t05_MPI128.out, tolnlines=   0,   tolabs=  0.0,      tolrel= 0.0
#%% [NCPU_256]
#%% files_to_test = t05_MPI256.out, tolnlines=   0,   tolabs=  0.0,      tolrel= 0.0
#%% [NCPU_512]
#%% files_to_test = t05_MPI512.out, tolnlines=   0,   tolabs=  0.0,      tolrel= 0.0
#%% [NCPU_1024]
#%% files_to_test = t05_MPI1024.out, tolnlines=   0,   tolabs=  0.0,      tolrel= 0.0
#%% [extra_info]
#%% keywords = PAW,HPC
#%% authors = M. Torrent
#%% description = Uranim oxide (UO2) - 96 atoms (GGA) - HPC test
#%%<END TEST_INFO>
