#GaAs crystal : ground-state with few bands,
 builtintest 7


#First dataset : SC run with kpoints in the IBZ
 nband   8     
 nstep  2
 irdwfk 0
 prtwant 2
 useylm 1

#Data common to all datasets
 kptopt 0
 nshiftk 1
 shiftk  0.0 0.0 0.0
 kpt 0.00000 0.00000 0.00000              ! K-points list
     0.00000 0.00000 0.50000
     0.00000 0.50000 0.00000
     0.00000 0.50000 0.50000
     0.50000 0.00000 0.00000
     0.50000 0.00000 0.50000
     0.50000 0.50000 0.00000
     0.50000 0.50000 0.50000
nkpt 8
istwfk 8*1

 acell   3*10.60
 amu 69.72  74.9216
 diemac 10.0
 ecut 4.00             ! This is too low
 ixc 1
 natom  2  
 ntypat  2
 rprim   0 .5 .5  .5 0 .5  .5 .5 0
 xred 3*0.00d0 3*0.25d0
 typat  1 2  tolwfr  1.e-10
 znucl  31 33


#%%<BEGIN TEST_INFO>
#%% [setup]
#%% no_check = yes
#%% executable = abinit
#%% need_cpp_vars = HAVE_WANNIER90
#%% [files]
#%% psp_files= 31ga.pspnc, 33as.pspnc
#%% extra_inputs = testin_wannier90o_w90.win
#%% [paral_info]
#%% max_nprocs = 1
#%% [extra_info]
#%% keywords = bigdft
#%% description = GaAs crystal with few bands.
#%%<END TEST_INFO>
