ecut 16.0        # Maximal kinetic energy cut-off, in Hartree

# Definition of the unit cell: fcc
acell  3*10.26         # Experimental lattice constants in Bohr
rprim  0.0  0.5  0.5   # FCC primitive vectors (to be scaled by acell)
       0.5  0.0  0.5
       0.5  0.5  0.0

# Definition of the atom types
ntypat  1
znucl 14

# Definition of the atoms
natom  2
typat  1 1
xred
      0.0  0.0  0.0
      0.25 0.25 0.25

# PBE pseudos from the PseudoDojo (scalar relativistic)
pp_dirpath "$ABI_PSPDIR"
pseudos "Psdj_nc_sr_04_pbe_std_psp8/Si.psp8"
