# Crystalline silicon
# Calculation of the GW corrections

ndtset      12
udtset      6  2

# Calculation of the screening (epsilon^-1 matrix)
optdriver?1  3
nband?1      100

# Convergence with respect to the dimension of epsilon^-1 matrix
ecuteps:?     3.0
ecuteps+?     1.0

# Calculation of the Self-Energy matrix elements (GW corrections)
optdriver?2  4
getscr?2     -1
ecutsigx     8.0
nband?2      100
nkptgw        1
kptgw        0.000    0.000    0.000
bdgw         4  5 

# GW calculation general parameters
getwfk       2
ppmfrq      16.7 eV


# Definition of the unit cell: fcc
acell  3*10.217        # This is equivalent to   10.217 10.217 10.217
rprim  0.0  0.5  0.5   # FCC primitive vectors (to be scaled by acell)
       0.5  0.0  0.5
       0.5  0.5  0.0

# Definition of the atom types
ntypat  1         # There is only one type of atom
znucl 14          # The keyword "znucl" refers to the atomic number of the
                  # possible type(s) of atom. The pseudopotential(s)
                  # mentioned in the "files" file must correspond
                  # to the type(s) of atom. Here, the only type is Silicon.

# Definition of the atoms
natom 2           # There are two atoms
typat  1 1        # They both are of type 1, that is, Silicon.
xred              # Reduced coordinate of atoms
      0.0  0.0  0.0
      0.25 0.25 0.25

# Definition of the planewave basis set (at convergence 16 Rydberg 8 Hartree)
ecut 8.0          # Maximal kinetic energy cut-off, in Hartree


# Sampling of the BZ
ngkpt   1 1 1 
nshiftk 1
shiftk  0.0 0.0 0.0
istwfk  *1         # This is mandatory in all the GW steps.


 pp_dirpath "$ABI_PSPDIR"
 pseudos "PseudosTM_pwteter/14si.pspnc"

#%%<BEGIN TEST_INFO>
#%% [setup]
#%% executable = abinit
#%% test_chain = tgw1_2.abi, tgw1_3.abi, tgw1_4.abi, tgw1_5.abi
#%% [files]
#%% files_to_test = 
#%%   tgw1_5.out, tolnlines= 70, tolabs=  7.000e-02, tolrel=  7.000e-02
#%% [paral_info]
#%% max_nprocs = 4
#%% [extra_info]
#%% authors = Unknown
#%% keywords = GW
#%% description = 
#%%   Crystalline silicon
#%%   Calculation of the GW corrections
#%%<END TEST_INFO>
