# =======================================
# Input for PAW1 tutorial
# Diamond at experimental volume
# =======================================

#Cell and atoms definition
 acell 3*3.567 angstrom
 rprim 0.0 1/2 1/2
       1/2 0.0 1/2
       1/2 1/2 0.0
 ntypat 1  natom 2  typat 2*1
 xred 0.0 0.0 0.0
      1/4 1/4 1/4
 znucl 6  nband 6

#Grid definitions
 ecut 15.
 ecutsm 0.5


#SCF cycle parameters
 tolvrs 1.0d-10
 nstep 20

#K-points and sym
 nsym 0       
 occopt 1
 ngkpt 6 6 6
 nshiftk 4
 shiftk 0.5 0.5 0.5
        0.5 0.0 0.0
        0.0 0.5 0.0
        0.0 0.0 0.5

#I/O parameters
 prtwf 0 prtden 0  prteig 0

 pp_dirpath "$ABI_PSPDIR"
 pseudos "PseudosTM_pwteter/6c.pspnc"

#%%<BEGIN TEST_INFO>
#%% [setup]
#%% executable = abinit
#%% exclude_builders = .*_intel_19.1_bdir.*
#%% [files]
#%% files_to_test = 
#%%   tpaw1_1.abo, tolnlines=  0, tolabs=  0.000e+00, tolrel=  0.000e+00
#%% output_file = "tpaw1_1.abo"
#%% [paral_info]
#%% max_nprocs = 4
#%% [extra_info]
#%% authors = M. Torrent
#%% keywords = PAW
#%% description = 
#%%   Input for PAW1 tutorial
#%%   Diamond at experimental volume
#%%<END TEST_INFO>


