# N2 system. 
# Excited state computation, using LDA/TDLDA

 ndtset    2

#DATASET 1  SCF
 tolwfr1   1.0d-15  # Well converged, giving accurate density
  nband1   5
 prtden1   1

#DATASET 2 TDDFT
   iscf2  -1
 tolwfr2   1.0d-9   # The additional bands do no need to be so well converged.
  nband2   12
 getden2   1
 getwfk2   1

#In this specific example, the number of bands is determined manually above, and there is no "buffer" band to be taken into account. 
 nbdbuf 0

#Definition of the unit cell, also boxcenter for the specificity of TDDFT
 acell 6  2*5 Angstrom
 boxcenter 3*0.0d0

#Definition of the atom types and pseudopotentials
 ntypat  1
 znucl  7
 pp_dirpath "$ABI_PSPDIR"                 # This is the path to the directory were pseudopotentials for tests are stored
 ixc 7
 pseudos "Pseudodojo_nc_sr_04_pw_standard_psp8/N.psp8"  # Name and location of the pseudopotential
                  # This pseudopotential comes from the pseudodojo site http://www.pseudo-dojo.org/  (NC SR LDA standard),
                  # and was generated using the LDA exchange-correlation functional (PW=Perdew-Wang, ixc=-1012).
                  # By default, abinit uses the same exchange-correlation functional than the one of the input pseudopotential(s)

#Definition of the atoms
 natom  2 
 typat  1 1
 xcart -0.54875  0 0  0.54875 0 0 Angstrom   # Distance 1.0975 Angstrom, fixed at experimental value according to 
    # Tables of Interatomic Distances and Configuration in Molecules and Ions, L.E. Sutton, ed., London: The Chemical Society, 1958.

#Numerical parameters of the calculation : planewave basis set and k point grid
 ecut 25
 kptopt 0          # Enter the k points manually, and by default, only one k point, at Gamma 

#Parameters for the SCF procedure
 diemac 1.0d0   diemix 0.5d0
 nstep 25

##############################################################
# This section is used only for regression testing of ABINIT #
##############################################################
#%%<BEGIN TEST_INFO>
#%% [setup]
#%% executable = abinit
#%% [files]
#%% files_to_test = 
#%%   ttddft_1.abo, tolnlines=  6, tolabs=  1.010e-02, tolrel=  4.000e-01
#%% [paral_info]
#%% max_nprocs = 1
#%% [extra_info]
#%% authors = Unknown
#%% keywords = TDDFT
#%% description = 
#%%  N2 system. 
#%%  Excited state computation, using LDA/TDLDA
#%%<END TEST_INFO>
