# Bidimensional layer of magnesium atoms
# Hexagonal lattice
# Examine the list of k points

 prtkpt 1
 kptopt 1
 kptrlen 40.0d0

 acell 2*6.0d0  10.0d0
 angdeg 90.0d0 90.0d0 120.0d0

 ecut 4.5
 natom 1
 nstep 1
 ntypat  1
 tolvrs 3.0d-20
 typat  1
 xcart 0.0 0.0 0.0
 znucl 12.0

#%%<BEGIN TEST_INFO>
#%% [setup]
#%% executable = abinit
#%% expected_failure = yes
#%% [files]
#%% files_to_test = 
#%%  t61.out, tolnlines = 0, tolabs = 0.000e+00, tolrel = 0.000e+00
#%% psp_files = 12mg.pspnc
#%% [paral_info]
#%% max_nprocs = 1
#%% [extra_info]
#%% keywords = 
#%% authors = Unknown
#%% description = 
#%%   2D hexagonal lattice: test the sets of k points generated automatically
#%% topics = k-points
#%%<END TEST_INFO>
