# Bi atom : reference test (very quick) for all LibXC functionals. nstep=1, nline=1.
# Not accurate, only portability check.

ndtset 45

# (S)LDAs X + different correlations
ixc1  -1002
ixc2  -1003
ixc3  -1004
ixc4  -1005
ixc5  -1006
ixc6  -1007
ixc7  -1008
ixc8  -1009
ixc9  -1010
ixc10 -1011
ixc11 -1012
ixc12 -1013
ixc13 -1014
ixc14 -1017
#Teter XC functional form
ixc15 -0020

# GGAs : Becke 88 exchange + different correlations
ixc16 -106130
ixc17 -106131
ixc18 -106132
ixc19 -106133
ixc20 -106134
ixc21 -106135
ixc22 -106136
ixc23 -106137

# GGAs : different exchanges + LYP correlation
ixc24 -101131
ixc25 -102131
ixc26 -103131
ixc27 -104131
ixc28 -105131
#ixc  -106131 already treated, see dataset 17
ixc29 -107131
ixc30 -108131
ixc31 -109131
ixc32 -110131
ixc33 -111131
ixc34 -112131
ixc35 -113131
ixc36 -114131
ixc37 -115131
ixc38 -116131
ixc39 -117131
ixc40 -118131
ixc41 -119131
ixc42 -120131
ixc43 -121131
ixc44 -122131
ixc45 -123131

#Common data
acell 3*10
diemac 2.0d0
diemix 0.5d0
ecut 10

nband 4 4
kptopt 0
nkpt 1
nstep 1
nline 1
occopt 2
occ 1 1 1 1  1 0 0 0
tolwfr 1.0d-14
xred 3*0

ntypat 1
natom 1
typat 1
znucl 83

nspinor 1
nsppol  2
nspden  2
spinat  1 0 0

#Avoid to print densities and wavefunctions
prtden 0
prtwf  0
prteig 0

## After modifying the following section, one might need to regenerate the pickle database with runtests.py -r
#%%<BEGIN TEST_INFO>
#%% [setup]
#%% executable = abinit
#%% [files]
#%% files_to_test = 
#%%   t05.out, tolnlines = 0, tolabs = 0.0, tolrel = 0.0
#%% psp_files = 83bi.psphgh
#%% [paral_info]
#%% max_nprocs = 2
#%% [extra_info]
#%% authors = Unknown
#%% keywords = 
#%% description = 
#%%   Isolated Bismuth atom
#%%   Test functionals from libXC that were present in ABINITv5 (LDAs and GGAs). 
#%%   This is to check the portability for different platform.
#%%   Extremely quick (nstep=1, nline=1). Less than 20 secs to test 45 functionals ...
#%%<END TEST_INFO>
