
#====== Basis set =====================#
 ecut 10.0

#====== Bands =========================#
 nband 8

#====== k-point grid ==================#
 kptopt 3
 ngkpt 1 1 1
 nshiftk 1
 shiftk    0.0    0.0    0.0

#====== Models ========================#
 ixc 1

#====== SCF procedure =================#
 iscf -2
 tolwfr 1e-18

#====== Parallelisation ===============#
 npfft 1

#====== Unit cell =====================#
 acell    1.0    1.0    1.0
 natom 2
 ntypat 2
 rprim
    0.000000000000    3.851503974437    3.851503974437
    3.851503974437    0.000000000000    3.851503974437
    3.851503974437    3.851503974437    0.000000000000
 typat 1 2
 xred
    0.0000000000    0.0000000000    0.0000000000
    0.5000000000    0.5000000000    0.5000000000
 znucl 3 9

#====== Printing ======================#
 enunit 2

#====== Files =========================#
 irdden 1

#====== Unsorted ======================#
 diemac 9.0
 nqpt 1
 qpt    0.5000000000    0.0000000000    0.0000000000

