# Fake H crystal.
# Test orthorhombic spacegroups

ndtset 59

spgroup: 16
spgroup+ 1

#This is for spgroup 16 to 46
              natom1 4     natom2 4     natom3 4     natom4 4
natom5  4     natom6 4     natom7 4     natom8 4     natom9 4
natom10 4     natom11 4    natom12 4    natom13 4    natom14 4
natom15 4     natom16 4    natom17 4    natom18 4    natom19 4
natom20 4     natom21 4    natom22 4    natom23 4    natom24 4
natom25 4     natom26 4    natom27 4    natom28 4    natom29 4
natom30 4     natom31 4

natom   8    # this is for spgroup 47 to 74

# Common data
prtvol -1          # stop in abinit (main program), before call driver.
brvltt -1          # important to reduce the conventional cell to primitive,
                   # and allow the recognition of space group
acell 7 8 9
angdeg  90 90 90
ntypat 1
znucl 1
natrd 1
xred 0.17 0.15 0.11
typat 1
ecut 1
  kptopt 0
nkpt 1
nline 1
nstep 1
toldfe 1.0d-6

## After modifying the following section, one might need to regenerate the pickle database with runtests.py -r
#%%<BEGIN TEST_INFO>
#%% [setup]
#%% executable = abinit
#%% [files]
#%% files_to_test = 
#%%   t26.out, tolnlines = 0, tolabs = 0.000e+00, tolrel = 0.000e+00
#%% psp_files = 01h.bare
#%% [paral_info]
#%% max_nprocs = 1
#%% [extra_info]
#%% authors = Unknown
#%% keywords = 
#%% description = 
#%%   H based fake crystals.
#%%   Test the generation and recognition of the
#%%   orthorhombic space groups, from spgroup 16 to 74.
#%%<END TEST_INFO>
