# Fake H crystal.
# Test trigonal and hexagonal spacegroups

ndtset 52

spgroup: 143
spgroup+ 1

#This is for spgroup 143 to 146
natom1 3     natom2 3     natom3 3     natom4 3

natom   6    # this is for spgroup 147 to 161  and 168 to 174

#This is for spgroup 162 to 167
natom20 12    natom21 12   natom22 12   natom23 12
natom24 12    natom25 12

#This is for spgroup 175 to 190
natom33 12    natom34 12   natom35 12   natom36 12
natom37 12    natom38 12   natom39 12   natom40 12
natom41 12    natom42 12   natom43 12   natom44 12
natom45 12    natom46 12   natom47 12   natom48 12

#This is for spgroup 191 to 194
natom49 24    natom50 24   natom51 24   natom52 24



#This is for hR Bravais lattice
acell4  8 8 8      angdeg4   85 85 85    spgaxor4  2  # spgroup 146
acell6  8 8 8      angdeg6   85 85 85    spgaxor6  2  # spgroup 148
acell13  8 8 8     angdeg13   85 85 85   spgaxor13 2  # spgroup 155
acell18  8 8 8     angdeg18   85 85 85   spgaxor18 2  # spgroup 160
acell19  8 8 8     angdeg19   85 85 85   spgaxor19 2  # spgroup 161
acell24  8 8 8     angdeg24   85 85 85   spgaxor24 2  # spgroup 166
acell25  8 8 8     angdeg25   85 85 85   spgaxor25 2  # spgroup 167

#This is for hP Bravais lattice
acell 8 8 9
angdeg  90 90 120


# Common data
prtvol -1          # stop in abinit (main program), before call driver.
brvltt -1          # important to reduce the conventional cell to primitive,
                   # and allow the recognition of space group
ntypat 1
znucl 1
natrd 1
xred 0.17 0.15 0.11
typat 1
ecut 1
  kptopt 0
nkpt 1
nline 1
nstep 1
toldfe 1.0d-6

## After modifying the following section, one might need to regenerate the pickle database with runtests.py -r
#%%<BEGIN TEST_INFO>
#%% [setup]
#%% executable = abinit
#%% [files]
#%% files_to_test = 
#%%    t28.out, tolnlines = 0, tolabs = 0.000e+00, tolrel = 0.000e+00
#%% psp_files = 01h.bare
#%% [paral_info]
#%% max_nprocs = 1
#%% [extra_info]
#%% authors = Unknown
#%% keywords = 
#%% description = 
#%%   H based fake crystals.
#%%   Test the generation and recognition of the
#%%   trigonal and hexagonal space groups, from spgroup 143 to 194.
#%%<END TEST_INFO>
