#   HCP Mg; optimization of the two cell parameters.

 ndtset 5

#First dataset : optimisation of volume only
 optcell1 1

#Second dataset : full optimisation
 optcell2 2

#Third dataset : constant-volume optimisation
 optcell3 3

#Fourth dataset : optimize c
 optcell4 6

#Fifth dataset : optimize a
 optcell5 9

#Common data
 acell  2*5.8d0 9.4d0
 rprim  1        0        0
       -0.5   sqrt(0.75)  0    # This is to test the use of sqrt
        0        0        1

 dilatmx 1.10
 ecut 3
 ecutsm 1.0
 ionmov 2

 natom  2

 kptopt 1
 ngkpt 4 4 2
 shiftk 0 0 0.5

 nstep 8
 ntime 15
 ntypat  1
 occopt  4

 toldfe  1.0d-10
 tolmxf 5.d-6
 typat  2*1
 xred  1/3
       2/3
       0.25

       2/3
       1/3
       0.75

 znucl 12.0


## After modifying the following section, one might need to regenerate the pickle database with runtests.py -r
#%%<BEGIN TEST_INFO>
#%% [setup]
#%% executable = abinit
#%% [files]
#%% files_to_test = 
#%%   t42.out, tolnlines = 0, tolabs = 0.000e+00, tolrel = 0.000e+00
#%% psp_files = 12mg.pspnc
#%% [paral_info]
#%% max_nprocs = 4
#%% [extra_info]
#%% authors = Unknown
#%% keywords = 
#%% description = 
#%%   Magnesium HCP. Optimize the cell volume and shape using different constraints.
#%%   Checks whether the stresses are symmetric, and whether the optimisation algorithm does
#%%   not break the symmetry.
#%% topics = GeoOpt
#%%<END TEST_INFO>
