# _== Convergency and starting
# DATASET 1: LDA 
# DATASET 2: LDA+DMFT
ndtset 2
jdtset 1 2
getwfk -1
#ndtset 1
#jdtset 2
#irdden2 1
nline1 5
nnsclo1 5
nline2 10
nnsclo2 10

prtvol    4
pawprtvol 3

##### CONVERGENCE PARAMETERS
nstep1   30
nstep2   10
ecut      12 # low cutoff !
pawecutdg 20
tolvrs 1.0d-7
nband     30
occopt 3 tsmear 1200 K
#npulayit 30

##### PHYSICAL PARAMETERS
natom 5 ntypat 3 typat 1 2 3 3 3
znucl  23.0 38.0 8.0
# V Sr O*3
xred 0.00 0.00 0.00
     0.50 0.50 0.50 
     0.50 0.00 0.00 
     0.00 0.50 0.00 
     0.00 0.00 0.50 
acell   3*7.2605
rprim 1.0 0.0 0.0    #Real space PRIMitive translations
      0.0 1.0 0.0
      0.0 0.0 1.0 

# == Points k and symetries
ngkpt   3 3 3    #K - PoinTs grid : Real space LATTice
nshiftk 4
shiftk 1/2 1/2 1/2
       1/2 0.0 0.0
       0.0 1/2 0.0
       0.0 0.0 1/2
istwfk *1

# == LDA+DMFT
usedmft1 0
usedmft2 1
dmftbandi 21 # t2g bands only
dmftbandf 23 # t2g bands only
dmft_nwlo 100
dmft_nwli 100000
dmft_iter 1
dmftcheck 0  
dmft_rslf 1
dmft_mxsf 0.7
dmft_dc 1
dmft_t2g 1   # special value for t2g only calculation.
dmftctqmc_gmove 0
dmftctqmc_order 50

# == CTQMC
dmft_solv 5 # CTQMC
dmftqmc_l 50
dmftqmc_n 1.d6
dmftqmc_therm 10000


# == DFT+U
usepawu     1  #  For density matrix printout.
dmatpuopt  1   # The density matrix: the simplest expression.
lpawu  2 -1 -1
upawu1  0.00  0.0  0.0  eV
f4of2_sla3  0.0  0.0  0.0 
upawu2  3.1333333333333333  0.0  0.0  eV
jpawu2  0.7583333333333333  0.0  0.0  eV


#%%<BEGIN TEST_INFO>
#%% [setup]
#%% executable = abinit
#%% [files]
#%% files_to_test =
#%%                  tdmft_2.out,  tolnlines =1, tolabs =5.0e-07, tolrel = 2.0e-03, fld_options=-medium ;
#%% psp_files = 23v.paw, 38sr.paw, 8o.2.paw
#%% [paral_info]
#%% nprocs_to_test = 32
#%% max_nprocs = 32
#%% [extra_info]
#%% authors = B. Amadon
#%% keywords = DMFT, CTQMC
#%% description = Tutorial DFT+DMFT on SrVO3
#%%<END TEST_INFO>
