usewvl 1
wvl_hgrid 0.30
wvl_crmult 7
wvl_frmult 8

nwfshist 6
nsym 1
ixc 1
iscf 2
icoulomb 1
optstress 0
prtwf 0
prtden 0
prteig 0

tolwfr 1e-4

acell 100 100 100
natom 65
ntypat 2
znucl 6 1
typat 21*1 44*2

xcart
    0.00000    0.00000    0.00000 
    0.00000    0.88250    1.24804 
    0.00000    0.00000    2.49609 
    0.00000    0.88250    3.74413 
    0.00000    0.00000    4.99217 
    0.00000    0.88250    6.24022 
    0.00000    0.00000    7.48826 
    0.00000    0.88250    8.73630 
    0.00000    0.00000    9.98435 
    0.00000    0.88250   11.23239 
    0.00000    0.00000   12.48043 
    0.00000    0.88250   13.72848 
    0.00000    0.00000   14.97652 
    0.00000    0.88250   16.22457 
    0.00000    0.00000   17.47261 
    0.00000    0.88250   18.72065 
    0.00000    0.00000   19.96870 
    0.00000    0.88250   21.21674 
    0.00000    0.00000   22.46478 
    0.00000    0.88250   23.71283 
    0.00000    0.00000   24.96087 
    0.00000    0.61775   -0.87363 
    0.87363   -0.61775    0.00000 
   -0.87363   -0.61775    0.00000 
    0.87363    1.50025    1.24804 
   -0.87363    1.50025    1.24804 
    0.87363   -0.61775    2.49609 
   -0.87363   -0.61775    2.49609 
    0.87363    1.50025    3.74413 
   -0.87363    1.50025    3.74413 
    0.87363   -0.61775    4.99217 
   -0.87363   -0.61775    4.99217 
    0.87363    1.50025    6.24022 
   -0.87363    1.50025    6.24022 
    0.87363   -0.61775    7.48826 
   -0.87363   -0.61775    7.48826 
    0.87363    1.50025    8.73630 
   -0.87363    1.50025    8.73630 
    0.87363   -0.61775    9.98435 
   -0.87363   -0.61775    9.98435 
    0.87363    1.50025   11.23239 
   -0.87363    1.50025   11.23239 
    0.87363   -0.61775   12.48043 
   -0.87363   -0.61775   12.48043 
    0.87363    1.50025   13.72848 
   -0.87363    1.50025   13.72848 
    0.87363   -0.61775   14.97652 
   -0.87363   -0.61775   14.97652 
    0.87363    1.50025   16.22457 
   -0.87363    1.50025   16.22457 
    0.87363   -0.61775   17.47261 
   -0.87363   -0.61775   17.47261 
    0.87363    1.50025   18.72065 
   -0.87363    1.50025   18.72065 
    0.87363   -0.61775   19.96870 
   -0.87363   -0.61775   19.96870 
    0.87363    1.50025   21.21674 
   -0.87363    1.50025   21.21674 
    0.87363   -0.61775   22.46478 
   -0.87363   -0.61775   22.46478 
    0.87363    1.50025   23.71283 
   -0.87363    1.50025   23.71283 
    0.87363   -0.61775   24.96087 
   -0.87363   -0.61775   24.96087 
    0.00000    0.61775   25.83450    Angstrom


#%%<BEGIN TEST_INFO>
#%% [setup]
#%% executable = abinit
#%% [files]
#%% files_to_test = tgswvl_02_MPI24.out, tolnlines =   0, tolabs =  0.0, tolrel= 0.0
#%% psp_files= C-q4, H-q1
#%% [paral_info]
#%% max_nprocs = 24
#%% nprocs_to_test = 24
#%% [extra_info]
#%% authors = D. Caliste
#%% keywords = NC,WVL
#%% description = chain of 65 atoms, 64 orbitals, parallel calculation
#%%<END TEST_INFO>
