usewvl 1
wvl_hgrid 0.45
wvl_crmult 5
wvl_frmult 8

nwfshist 6
ixc 11
iscf 0
icoulomb 1
optstress 0
prtwf 0
prtden 0
prteig 0

tolwfr 1e-4

ntypat 1
znucl 5
typat 14*1
natom 14

kpt 3*0. kptopt 0 istwfk *1

acell 20 20 20
xcart 
       6.23174441376337462E+00  1.10650949517181125E+01  8.80369514094791228E+00                                                    
       6.46975493123427281E+00  1.16466203707466729E+01  7.38942614477337933E+00                                                    
       6.06260066201525571E+00  9.92651732450364754E+00  7.48967117179688202E+00                                                    
       7.80101706261892769E+00  1.05781643210426584E+01  7.83061522324544157E+00                                                    
       6.31690262930086011E+00  8.31702761150885550E+00  7.01500573994981380E+00                                                    
       7.75164346206343247E+00  7.71450195176475972E+00  8.07490331742471490E+00                                                    
       7.03603095641418808E+00  9.37653827161064335E+00  6.05099299166473248E+00                                                    
       9.17770300902474467E+00  7.98319528851733384E+00  8.99010444257574015E+00                                                    
       7.16405045957283093E+00  1.08856491054555171E+01  6.23700501567613319E+00                                                    
       7.62758557507984225E+00  5.97498074889332820E+00  7.97176704264589375E+00                                                    
       7.14341418637742454E+00  1.00163217181891877E+01  9.42744042423526629E+00                                                    
       8.44317230240882566E+00  9.32780744990434307E+00  8.78315808382683194E+00                                                    
       6.51462241221419625E+00  6.81056643770915038E+00  7.30106028716855171E+00                                                    
       8.83833328151791164E+00  6.50337987446461785E+00  8.70844982986595006E+00        Angstrom


#%%<BEGIN TEST_INFO>
#%% [setup]
#%% executable = abinit
#%% [files]
#%% files_to_test = tgswvl_01_MPI2.out, tolnlines =   0, tolabs =  0.0, tolrel= 0.0
#%% psp_files= B-q3
#%% [paral_info]
#%% max_nprocs = 2
#%% nprocs_to_test = 2
#%% [extra_info]
#%% authors = D. Caliste
#%% keywords = NC,WVL
#%% description = Boron cluster, parallel calculation
#%%<END TEST_INFO>

