# Crystalline alpha-quartz
# DATASET 1 : BS run
optdriver   99
irdwfk      1
irdscr      1

bs_calctype       1       # L0 is constructed with KS orbitals and energies.
mbpt_sciss        3.1 eV
bs_exchange_term  1       # Exchange term included.
#bs_coulomb_term   10      # Coulomb term included using the diagonal approximation W_GG
bs_coulomb_term   11      # Coulomb term included using the full matrix W_GG'
bs_coupling       0       # Tamm-Dancoff approximation.
inclvkb           2

bs_loband         21
nband             28

bs_freq_mesh 0 20 0.1 eV   # Frequency mesh.

bs_algorithm       2       # Haydock method.
bs_haydock_niter   200     # Max number of iterations for the Haydock method.
bs_haydock_tol     0.05    # Tolerance for the iterative method.
zcut               0.1 eV  # complex shift to avoid divergences in the continued fraction.

ecutwfn     20
ecuteps     3

#################### COMMON PART #########################

# number of self-consistent field steps
nstep        200

# energy cutoff [Ha]:
ecut         20

#Definition of the k-point grid
occopt 1           # Semiconductor
kptopt 1           # Option for the automatic generation of k points, taking
                   # into account the symmetry

ngkpt   4 4 3
nshiftk  1
shiftk  0.0 0.0 0.0
istwfk  *1

# Definition of the atom types
npsp   2
znucl  14  8
ntypat 2

# Definition of the atoms
natom 9
typat 3*1  6*2

# Experimental parameters (Wyckoff pag 312)
# u(Si)= 0.465
# x= 0.415 ; y= 0.272 ; z= 0.120

acell   2*4.91304  5.40463  Angstrom

xred   0.465   0.000   0.000              #Si
       0.000   0.465   2/3                #Si
      -0.465  -0.465   1/3                #Si
       0.415   0.272   0.120              #O
      -0.143  -0.415   0.4533333333333333 #O
      -0.272   0.143   0.7866666666666666 #O
       0.143  -0.272  -0.120              #O
       0.272   0.415   0.5466666666666666 #O
      -0.415  -0.143   0.2133333333333333 #O

rprim   5.0000000000e-01 -8.6602540378e-01  0.0000000000e+00
        5.0000000000e-01  8.6602540378e-01  0.0000000000e+00
        0.0000000000e+00  0.0000000000e+00  1.0000000000e+00

#%%<BEGIN TEST_INFO>
#%% [setup]
#%% executable = abinit
#%% [files]
#%% psp_files = PseudosTM_pwteter/14si.pspnc, PseudosTM_pwteter/8o.pspnc
#%% [paral_info]
#%% max_nprocs = 20
#%% nprocs_to_test = 20
#%% [NCPU_20]
#%%   tmbt_5_MPI20.out, tolnlines = 0, tolabs = 1.100e-03, tolrel = 3.000e-03
#%% [extra_info]
#%% authors = M. Giantomassi
#%% keywords =  GW, BSE
#%% description = GW calculation for crystalline alpha-quartz. Sigma calculation
#%%<END TEST_INFO>
