#parallelization
paral_kgb 1
npband 2
npfft 1
np_spkpt 1
bandpp 40

prtden 0 prtwf 0 prteig 0
ecut 3.

#SCF cycle parameters
tolvrs 1.d-3 nstep 50

#K-points and sym
occopt 3
ngkpt 1 1 1
nsym 1

#Molecular Dynamics parameters
ionmov 12 ntime 300
dtion 100
ndtset 3
mdtemp1 4500 4500
mdtemp2 5000 5000
mdtemp3 5500 5500
tsmear1 4500. K
tsmear2 5000. K
tsmear3 5500. K

#Cell and atoms definition
acell 3*12.81
rprim 1 0 0
 0 1 0
0 0 1
natom 32 ntypat 1 typat 32*1 znucl 13.0
nband 80
  xred
  0.00000000E+00  0.00000000E+00  0.00000000E+00
  0.00000000E+00  0.25000000E+00  0.25000000E+00
  0.25000000E+00  0.00000000E+00  0.25000000E+00
  0.25000000E+00  0.25000000E+00  0.00000000E+00
  0.00000000E+00  0.00000000E+00  0.50000000E+00
  0.00000000E+00  0.25000000E+00  0.75000000E+00
  0.25000000E+00  0.00000000E+00  0.75000000E+00
  0.25000000E+00  0.25000000E+00  0.50000000E+00
  0.00000000E+00  0.50000000E+00  0.00000000E+00
  0.00000000E+00  0.75000000E+00  0.25000000E+00
  0.25000000E+00  0.50000000E+00  0.25000000E+00
  0.25000000E+00  0.75000000E+00  0.00000000E+00
  0.00000000E+00  0.50000000E+00  0.50000000E+00
  0.00000000E+00  0.75000000E+00  0.75000000E+00
  0.25000000E+00  0.50000000E+00  0.75000000E+00
  0.25000000E+00  0.75000000E+00  0.50000000E+00
  0.50000000E+00  0.00000000E+00  0.00000000E+00
  0.50000000E+00  0.25000000E+00  0.25000000E+00
  0.75000000E+00  0.00000000E+00  0.25000000E+00
  0.75000000E+00  0.25000000E+00  0.00000000E+00
  0.50000000E+00  0.00000000E+00  0.50000000E+00
  0.50000000E+00  0.25000000E+00  0.75000000E+00
  0.75000000E+00  0.00000000E+00  0.75000000E+00
  0.75000000E+00  0.25000000E+00  0.50000000E+00
  0.50000000E+00  0.50000000E+00  0.00000000E+00
  0.50000000E+00  0.75000000E+00  0.25000000E+00
  0.75000000E+00  0.50000000E+00  0.25000000E+00
  0.75000000E+00  0.75000000E+00  0.00000000E+00
  0.50000000E+00  0.50000000E+00  0.50000000E+00
  0.50000000E+00  0.75000000E+00  0.75000000E+00
  0.75000000E+00  0.50000000E+00  0.75000000E+00
  0.75000000E+00  0.75000000E+00  0.50000000E+00

pp_dirpath "$ABI_PSPDIR/Psdj_nc_sr_04_pw_std_psp8"
pseudos "Al.psp8"

##############################################################
# This section is used only for regression testing of ABINIT #
##############################################################
#%%<BEGIN TEST_INFO>
#%% [setup]
#%% executable = abinit
#%% [NCPU_2]
#%% files_to_test = 
#%%   tmoldyn_07_MPI2.abo, tolnlines = 0, tolabs = 0.0e-0, tolrel = 0.0e-0, fld_options = -medium;
#%% [paral_info]
#%% nprocs_to_test = 2
#%% max_nprocs = 2
#%% [extra_info]
#%% authors = J. Bieder
#%% keywords = 
#%% description = Molecular dynamics for Al
#%%<END TEST_INFO>
