#parallelization
paral_kgb 1
npband 15
npfft 3
npkpt 4
bandpp 2

prtden 0 prtwf 0 prteig 0
ecut 3.

#SCF cycle parameters
tolvrs 1.d-3 nstep 50

#K-points and sym
occopt 3
kptopt 1 ngkpt 2 2 2
nsym 1

#Molecular Dynamics parameters
ionmov 12 ntime 100
dtion 100
mdtemp 3000 3000
tsmear 0.009500446

#Cell and atoms definition
acell 3*19.215
rprim 1 0 0
 0 1 0
0 0 1
natom 108 ntypat 1 typat 108*1 znucl 13.0
nband 300
xred
  0.00000000E+00  0.00000000E+00  0.00000000E+00
  0.00000000E+00  0.16666667E+00  0.16666667E+00
  0.16666667E+00  0.00000000E+00  0.16666667E+00
  0.16666667E+00  0.16666667E+00  0.00000000E+00
  0.00000000E+00  0.00000000E+00  0.33333333E+00
  0.00000000E+00  0.16666667E+00  0.50000000E+00
  0.16666667E+00  0.00000000E+00  0.50000000E+00
  0.16666667E+00  0.16666667E+00  0.33333333E+00
  0.00000000E+00  0.00000000E+00  0.66666667E+00
  0.00000000E+00  0.16666667E+00  0.83333333E+00
  0.16666667E+00  0.00000000E+00  0.83333333E+00
  0.16666667E+00  0.16666667E+00  0.66666667E+00
  0.00000000E+00  0.33333333E+00  0.00000000E+00
  0.00000000E+00  0.50000000E+00  0.16666667E+00
  0.16666667E+00  0.33333333E+00  0.16666667E+00
  0.16666667E+00  0.50000000E+00  0.00000000E+00
  0.00000000E+00  0.33333333E+00  0.33333333E+00
  0.00000000E+00  0.50000000E+00  0.50000000E+00
  0.16666667E+00  0.33333333E+00  0.50000000E+00
  0.16666667E+00  0.50000000E+00  0.33333333E+00
  0.00000000E+00  0.33333333E+00  0.66666667E+00
  0.00000000E+00  0.50000000E+00  0.83333333E+00
  0.16666667E+00  0.33333333E+00  0.83333333E+00
  0.16666667E+00  0.50000000E+00  0.66666667E+00
  0.00000000E+00  0.66666667E+00  0.00000000E+00
  0.00000000E+00  0.83333333E+00  0.16666667E+00
  0.16666667E+00  0.66666667E+00  0.16666667E+00
  0.16666667E+00  0.83333333E+00  0.00000000E+00
  0.00000000E+00  0.66666667E+00  0.33333333E+00
  0.00000000E+00  0.83333333E+00  0.50000000E+00
  0.16666667E+00  0.66666667E+00  0.50000000E+00
  0.16666667E+00  0.83333333E+00  0.33333333E+00
  0.00000000E+00  0.66666667E+00  0.66666667E+00
  0.00000000E+00  0.83333333E+00  0.83333333E+00
  0.16666667E+00  0.66666667E+00  0.83333333E+00
  0.16666667E+00  0.83333333E+00  0.66666667E+00
  0.33333333E+00  0.00000000E+00  0.00000000E+00
  0.33333333E+00  0.16666667E+00  0.16666667E+00
  0.50000000E+00  0.00000000E+00  0.16666667E+00
  0.50000000E+00  0.16666667E+00  0.00000000E+00
  0.33333333E+00  0.00000000E+00  0.33333333E+00
  0.33333333E+00  0.16666667E+00  0.50000000E+00
  0.50000000E+00  0.00000000E+00  0.50000000E+00
  0.50000000E+00  0.16666667E+00  0.33333333E+00
  0.33333333E+00  0.00000000E+00  0.66666667E+00
  0.33333333E+00  0.16666667E+00  0.83333333E+00
  0.50000000E+00  0.00000000E+00  0.83333333E+00
  0.50000000E+00  0.16666667E+00  0.66666667E+00
  0.33333333E+00  0.33333333E+00  0.00000000E+00
  0.33333333E+00  0.50000000E+00  0.16666667E+00
  0.50000000E+00  0.33333333E+00  0.16666667E+00
  0.50000000E+00  0.50000000E+00  0.00000000E+00
  0.33333333E+00  0.33333333E+00  0.33333333E+00
  0.33333333E+00  0.50000000E+00  0.50000000E+00
  0.50000000E+00  0.33333333E+00  0.50000000E+00
  0.50000000E+00  0.50000000E+00  0.33333333E+00
  0.33333333E+00  0.33333333E+00  0.66666667E+00
  0.33333333E+00  0.50000000E+00  0.83333333E+00
  0.50000000E+00  0.33333333E+00  0.83333333E+00
  0.50000000E+00  0.50000000E+00  0.66666667E+00
  0.33333333E+00  0.66666667E+00  0.00000000E+00
  0.33333333E+00  0.83333333E+00  0.16666667E+00
  0.50000000E+00  0.66666667E+00  0.16666667E+00
  0.50000000E+00  0.83333333E+00  0.00000000E+00
  0.33333333E+00  0.66666667E+00  0.33333333E+00
  0.33333333E+00  0.83333333E+00  0.50000000E+00
  0.50000000E+00  0.66666667E+00  0.50000000E+00
  0.50000000E+00  0.83333333E+00  0.33333333E+00
  0.33333333E+00  0.66666667E+00  0.66666667E+00
  0.33333333E+00  0.83333333E+00  0.83333333E+00
  0.50000000E+00  0.66666667E+00  0.83333333E+00
  0.50000000E+00  0.83333333E+00  0.66666667E+00
  0.66666667E+00  0.00000000E+00  0.00000000E+00
  0.66666667E+00  0.16666667E+00  0.16666667E+00
  0.83333333E+00  0.00000000E+00  0.16666667E+00
  0.83333333E+00  0.16666667E+00  0.00000000E+00
  0.66666667E+00  0.00000000E+00  0.33333333E+00
  0.66666667E+00  0.16666667E+00  0.50000000E+00
  0.83333333E+00  0.00000000E+00  0.50000000E+00
  0.83333333E+00  0.16666667E+00  0.33333333E+00
  0.66666667E+00  0.00000000E+00  0.66666667E+00
  0.66666667E+00  0.16666667E+00  0.83333333E+00
  0.83333333E+00  0.00000000E+00  0.83333333E+00
  0.83333333E+00  0.16666667E+00  0.66666667E+00
  0.66666667E+00  0.33333333E+00  0.00000000E+00
  0.66666667E+00  0.50000000E+00  0.16666667E+00
  0.83333333E+00  0.33333333E+00  0.16666667E+00
  0.83333333E+00  0.50000000E+00  0.00000000E+00
  0.66666667E+00  0.33333333E+00  0.33333333E+00
  0.66666667E+00  0.50000000E+00  0.50000000E+00
  0.83333333E+00  0.33333333E+00  0.50000000E+00
  0.83333333E+00  0.50000000E+00  0.33333333E+00
  0.66666667E+00  0.33333333E+00  0.66666667E+00
  0.66666667E+00  0.50000000E+00  0.83333333E+00
  0.83333333E+00  0.33333333E+00  0.83333333E+00
  0.83333333E+00  0.50000000E+00  0.66666667E+00
  0.66666667E+00  0.66666667E+00  0.00000000E+00
  0.66666667E+00  0.83333333E+00  0.16666667E+00
  0.83333333E+00  0.66666667E+00  0.16666667E+00
  0.83333333E+00  0.83333333E+00  0.00000000E+00
  0.66666667E+00  0.66666667E+00  0.33333333E+00
  0.66666667E+00  0.83333333E+00  0.50000000E+00
  0.83333333E+00  0.66666667E+00  0.50000000E+00
  0.83333333E+00  0.83333333E+00  0.33333333E+00
  0.66666667E+00  0.66666667E+00  0.66666667E+00
  0.66666667E+00  0.83333333E+00  0.83333333E+00
  0.83333333E+00  0.66666667E+00  0.83333333E+00
  0.83333333E+00  0.83333333E+00  0.66666667E+00

#%%<BEGIN TEST_INFO>
#%% [setup]
#%% executable = abinit
#%% [files]
#%% files_to_test = 
#%%   tmoldyn_05.out, tolnlines = 0, tolabs = 1.100e-03, tolrel = 3.000e-03
#%% psp_files = 13al.pspnc
#%% [paral_info]
#%% nprocs_to_test = 180
#%% [extra_info]
#%% authors = 
#%% keywords = 
#%% description = 
#%%<END TEST_INFO>
