#parallelization
paral_kgb 1
npband 2
npfft 1
npkpt 1
bandpp 40

prtden 0 prtwf 0 prteig 0
ecut 3.

#SCF cycle parameters
tolvrs 1.d-3 nstep 50

#K-points and sym
occopt 3
kptopt 0 nkpt 1
nsym 1

#Molecular Dynamics parameters
ionmov 12 ntime 300
dtion 100
ndtset 3
mdtemp1 5500 5500
mdtemp2 6000 6000
mdtemp3 6500 6500
tsmear1 5500. K
tsmear2 6000. K
tsmear3 6500. K

#Cell and atoms definition
acell 3*12.81
rprim 1 0 0
 0 1 0
0 0 1
natom 32 ntypat 1 typat 32*1 znucl 13.0
nband 80
  xred
  0.00000000E+00  0.00000000E+00  0.00000000E+00
  0.00000000E+00  0.25000000E+00  0.25000000E+00
  0.25000000E+00  0.00000000E+00  0.25000000E+00
  0.25000000E+00  0.25000000E+00  0.00000000E+00
  0.00000000E+00  0.00000000E+00  0.50000000E+00
  0.00000000E+00  0.25000000E+00  0.75000000E+00
  0.25000000E+00  0.00000000E+00  0.75000000E+00
  0.25000000E+00  0.25000000E+00  0.50000000E+00
  0.00000000E+00  0.50000000E+00  0.00000000E+00
  0.00000000E+00  0.75000000E+00  0.25000000E+00
  0.25000000E+00  0.50000000E+00  0.25000000E+00
  0.25000000E+00  0.75000000E+00  0.00000000E+00
  0.00000000E+00  0.50000000E+00  0.50000000E+00
  0.00000000E+00  0.75000000E+00  0.75000000E+00
  0.25000000E+00  0.50000000E+00  0.75000000E+00
  0.25000000E+00  0.75000000E+00  0.50000000E+00
  0.50000000E+00  0.00000000E+00  0.00000000E+00
  0.50000000E+00  0.25000000E+00  0.25000000E+00
  0.75000000E+00  0.00000000E+00  0.25000000E+00
  0.75000000E+00  0.25000000E+00  0.00000000E+00
  0.50000000E+00  0.00000000E+00  0.50000000E+00
  0.50000000E+00  0.25000000E+00  0.75000000E+00
  0.75000000E+00  0.00000000E+00  0.75000000E+00
  0.75000000E+00  0.25000000E+00  0.50000000E+00
  0.50000000E+00  0.50000000E+00  0.00000000E+00
  0.50000000E+00  0.75000000E+00  0.25000000E+00
  0.75000000E+00  0.50000000E+00  0.25000000E+00
  0.75000000E+00  0.75000000E+00  0.00000000E+00
  0.50000000E+00  0.50000000E+00  0.50000000E+00
  0.50000000E+00  0.75000000E+00  0.75000000E+00
  0.75000000E+00  0.50000000E+00  0.75000000E+00
  0.75000000E+00  0.75000000E+00  0.50000000E+00

pp_dirpath "$ABI_PSPDIR/Pseudodojo_nc_sr_04_pw_standard_psp8"
pseudos "Al.psp8"

#%%<BEGIN TEST_INFO>
#%% [setup]
#%% executable = abinit
#%% [NCPU_2]
#%% files_to_test = 
#%%   tmoldyn_07_MPI2.abo, tolnlines = 0, tolabs = 1.100e-03, tolrel = 3.000e-03
#%% [paral_info]
#%% nprocs_to_test = 2
#%% max_nprocs = 2
#%% [extra_info]
#%% authors = J. Bieder
#%% keywords = 
#%% description = Molecular dynamics for Al
#%%<END TEST_INFO>
