#parallelization
paral_kgb 1
npband 10
npfft 3
npkpt 1
bandpp 2

prtden 0 prtwf 0 prteig 0
ecut 3.

#SCF cycle parameters
tolvrs 1.d-3 nstep 50

#K-points and sym
occopt 3
kptopt 0 nkpt 1
nsym 1

#Molecular Dynamics parameters
ionmov 12 ntime 300
dtion 100
mdtemp 6500 6500
tsmear 6500. K

#Cell and atoms definition
acell 3*12.81
rprim 1 0 0
 0 1 0
0 0 1
natom 32 ntypat 1 typat 32*1 znucl 13.0
nband 80
  xred
  0.00000000E+00  0.00000000E+00  0.00000000E+00
  0.00000000E+00  0.25000000E+00  0.25000000E+00
  0.25000000E+00  0.00000000E+00  0.25000000E+00
  0.25000000E+00  0.25000000E+00  0.00000000E+00
  0.00000000E+00  0.00000000E+00  0.50000000E+00
  0.00000000E+00  0.25000000E+00  0.75000000E+00
  0.25000000E+00  0.00000000E+00  0.75000000E+00
  0.25000000E+00  0.25000000E+00  0.50000000E+00
  0.00000000E+00  0.50000000E+00  0.00000000E+00
  0.00000000E+00  0.75000000E+00  0.25000000E+00
  0.25000000E+00  0.50000000E+00  0.25000000E+00
  0.25000000E+00  0.75000000E+00  0.00000000E+00
  0.00000000E+00  0.50000000E+00  0.50000000E+00
  0.00000000E+00  0.75000000E+00  0.75000000E+00
  0.25000000E+00  0.50000000E+00  0.75000000E+00
  0.25000000E+00  0.75000000E+00  0.50000000E+00
  0.50000000E+00  0.00000000E+00  0.00000000E+00
  0.50000000E+00  0.25000000E+00  0.25000000E+00
  0.75000000E+00  0.00000000E+00  0.25000000E+00
  0.75000000E+00  0.25000000E+00  0.00000000E+00
  0.50000000E+00  0.00000000E+00  0.50000000E+00
  0.50000000E+00  0.25000000E+00  0.75000000E+00
  0.75000000E+00  0.00000000E+00  0.75000000E+00
  0.75000000E+00  0.25000000E+00  0.50000000E+00
  0.50000000E+00  0.50000000E+00  0.00000000E+00
  0.50000000E+00  0.75000000E+00  0.25000000E+00
  0.75000000E+00  0.50000000E+00  0.25000000E+00
  0.75000000E+00  0.75000000E+00  0.00000000E+00
  0.50000000E+00  0.50000000E+00  0.50000000E+00
  0.50000000E+00  0.75000000E+00  0.75000000E+00
  0.75000000E+00  0.50000000E+00  0.75000000E+00
  0.75000000E+00  0.75000000E+00  0.50000000E+00

#%%<BEGIN TEST_INFO>
#%% [setup]
#%% executable = abinit
#%% [files]
#%% psp_files = PseudosTM_pwteter/13al.pspnc
#%% [NCPU_30]
#%% files_to_test = 
#%%   tmoldyn_07.out, tolnlines = 0, tolabs = 1.100e-03, tolrel = 3.000e-03
#%% [paral_info]
#%% nprocs_to_test = 30
#%% max_nprocs = 30
#%% [extra_info]
#%% authors = 
#%% keywords = 
#%% description = 
#%%<END TEST_INFO>
