#parallelization
paral_kgb 1
npband 8
npfft 1
np_spkpt 1
bandpp 19

prtden 0 prtwf 0 prteig 0
ecut 3.

#SCF cycle parameters
tolvrs 1.d-3 nstep 50

#K-points and sym
occopt 3
ngkpt 1 1 1
nsym 1

#Molecular Dynamics parameters
ionmov 12 ntime 100
dtion 100
mdtemp 3000 3000
tsmear 0.009500446

#Cell and atoms definition
acell 3*19.215
rprim 1 0 0
 0 1 0
0 0 1
natom 108 ntypat 1 typat 108*1 znucl 13.0
nband 304
xred
  0.00000000E+00  0.00000000E+00  0.00000000E+00
  0.00000000E+00  0.16666667E+00  0.16666667E+00
  0.16666667E+00  0.00000000E+00  0.16666667E+00
  0.16666667E+00  0.16666667E+00  0.00000000E+00
  0.00000000E+00  0.00000000E+00  0.33333333E+00
  0.00000000E+00  0.16666667E+00  0.50000000E+00
  0.16666667E+00  0.00000000E+00  0.50000000E+00
  0.16666667E+00  0.16666667E+00  0.33333333E+00
  0.00000000E+00  0.00000000E+00  0.66666667E+00
  0.00000000E+00  0.16666667E+00  0.83333333E+00
  0.16666667E+00  0.00000000E+00  0.83333333E+00
  0.16666667E+00  0.16666667E+00  0.66666667E+00
  0.00000000E+00  0.33333333E+00  0.00000000E+00
  0.00000000E+00  0.50000000E+00  0.16666667E+00
  0.16666667E+00  0.33333333E+00  0.16666667E+00
  0.16666667E+00  0.50000000E+00  0.00000000E+00
  0.00000000E+00  0.33333333E+00  0.33333333E+00
  0.00000000E+00  0.50000000E+00  0.50000000E+00
  0.16666667E+00  0.33333333E+00  0.50000000E+00
  0.16666667E+00  0.50000000E+00  0.33333333E+00
  0.00000000E+00  0.33333333E+00  0.66666667E+00
  0.00000000E+00  0.50000000E+00  0.83333333E+00
  0.16666667E+00  0.33333333E+00  0.83333333E+00
  0.16666667E+00  0.50000000E+00  0.66666667E+00
  0.00000000E+00  0.66666667E+00  0.00000000E+00
  0.00000000E+00  0.83333333E+00  0.16666667E+00
  0.16666667E+00  0.66666667E+00  0.16666667E+00
  0.16666667E+00  0.83333333E+00  0.00000000E+00
  0.00000000E+00  0.66666667E+00  0.33333333E+00
  0.00000000E+00  0.83333333E+00  0.50000000E+00
  0.16666667E+00  0.66666667E+00  0.50000000E+00
  0.16666667E+00  0.83333333E+00  0.33333333E+00
  0.00000000E+00  0.66666667E+00  0.66666667E+00
  0.00000000E+00  0.83333333E+00  0.83333333E+00
  0.16666667E+00  0.66666667E+00  0.83333333E+00
  0.16666667E+00  0.83333333E+00  0.66666667E+00
  0.33333333E+00  0.00000000E+00  0.00000000E+00
  0.33333333E+00  0.16666667E+00  0.16666667E+00
  0.50000000E+00  0.00000000E+00  0.16666667E+00
  0.50000000E+00  0.16666667E+00  0.00000000E+00
  0.33333333E+00  0.00000000E+00  0.33333333E+00
  0.33333333E+00  0.16666667E+00  0.50000000E+00
  0.50000000E+00  0.00000000E+00  0.50000000E+00
  0.50000000E+00  0.16666667E+00  0.33333333E+00
  0.33333333E+00  0.00000000E+00  0.66666667E+00
  0.33333333E+00  0.16666667E+00  0.83333333E+00
  0.50000000E+00  0.00000000E+00  0.83333333E+00
  0.50000000E+00  0.16666667E+00  0.66666667E+00
  0.33333333E+00  0.33333333E+00  0.00000000E+00
  0.33333333E+00  0.50000000E+00  0.16666667E+00
  0.50000000E+00  0.33333333E+00  0.16666667E+00
  0.50000000E+00  0.50000000E+00  0.00000000E+00
  0.33333333E+00  0.33333333E+00  0.33333333E+00
  0.33333333E+00  0.50000000E+00  0.50000000E+00
  0.50000000E+00  0.33333333E+00  0.50000000E+00
  0.50000000E+00  0.50000000E+00  0.33333333E+00
  0.33333333E+00  0.33333333E+00  0.66666667E+00
  0.33333333E+00  0.50000000E+00  0.83333333E+00
  0.50000000E+00  0.33333333E+00  0.83333333E+00
  0.50000000E+00  0.50000000E+00  0.66666667E+00
  0.33333333E+00  0.66666667E+00  0.00000000E+00
  0.33333333E+00  0.83333333E+00  0.16666667E+00
  0.50000000E+00  0.66666667E+00  0.16666667E+00
  0.50000000E+00  0.83333333E+00  0.00000000E+00
  0.33333333E+00  0.66666667E+00  0.33333333E+00
  0.33333333E+00  0.83333333E+00  0.50000000E+00
  0.50000000E+00  0.66666667E+00  0.50000000E+00
  0.50000000E+00  0.83333333E+00  0.33333333E+00
  0.33333333E+00  0.66666667E+00  0.66666667E+00
  0.33333333E+00  0.83333333E+00  0.83333333E+00
  0.50000000E+00  0.66666667E+00  0.83333333E+00
  0.50000000E+00  0.83333333E+00  0.66666667E+00
  0.66666667E+00  0.00000000E+00  0.00000000E+00
  0.66666667E+00  0.16666667E+00  0.16666667E+00
  0.83333333E+00  0.00000000E+00  0.16666667E+00
  0.83333333E+00  0.16666667E+00  0.00000000E+00
  0.66666667E+00  0.00000000E+00  0.33333333E+00
  0.66666667E+00  0.16666667E+00  0.50000000E+00
  0.83333333E+00  0.00000000E+00  0.50000000E+00
  0.83333333E+00  0.16666667E+00  0.33333333E+00
  0.66666667E+00  0.00000000E+00  0.66666667E+00
  0.66666667E+00  0.16666667E+00  0.83333333E+00
  0.83333333E+00  0.00000000E+00  0.83333333E+00
  0.83333333E+00  0.16666667E+00  0.66666667E+00
  0.66666667E+00  0.33333333E+00  0.00000000E+00
  0.66666667E+00  0.50000000E+00  0.16666667E+00
  0.83333333E+00  0.33333333E+00  0.16666667E+00
  0.83333333E+00  0.50000000E+00  0.00000000E+00
  0.66666667E+00  0.33333333E+00  0.33333333E+00
  0.66666667E+00  0.50000000E+00  0.50000000E+00
  0.83333333E+00  0.33333333E+00  0.50000000E+00
  0.83333333E+00  0.50000000E+00  0.33333333E+00
  0.66666667E+00  0.33333333E+00  0.66666667E+00
  0.66666667E+00  0.50000000E+00  0.83333333E+00
  0.83333333E+00  0.33333333E+00  0.83333333E+00
  0.83333333E+00  0.50000000E+00  0.66666667E+00
  0.66666667E+00  0.66666667E+00  0.00000000E+00
  0.66666667E+00  0.83333333E+00  0.16666667E+00
  0.83333333E+00  0.66666667E+00  0.16666667E+00
  0.83333333E+00  0.83333333E+00  0.00000000E+00
  0.66666667E+00  0.66666667E+00  0.33333333E+00
  0.66666667E+00  0.83333333E+00  0.50000000E+00
  0.83333333E+00  0.66666667E+00  0.50000000E+00
  0.83333333E+00  0.83333333E+00  0.33333333E+00
  0.66666667E+00  0.66666667E+00  0.66666667E+00
  0.66666667E+00  0.83333333E+00  0.83333333E+00
  0.83333333E+00  0.66666667E+00  0.83333333E+00
  0.83333333E+00  0.83333333E+00  0.66666667E+00

pp_dirpath "$ABI_PSPDIR/Psdj_nc_sr_04_pw_std_psp8"
pseudos "Al.psp8"

##############################################################
# This section is used only for regression testing of ABINIT #
##############################################################
#%%<BEGIN TEST_INFO>
#%% [setup]
#%% executable = abinit
#%% [NCPU_8]
#%% files_to_test = 
#%%   tmoldyn_04_MPI8.abo, tolnlines = 0, tolabs = 1.100e-03, tolrel = 3.000e-03
#%% [paral_info]
#%% nprocs_to_test = 8 
#%% max_nprocs=8
#%% [extra_info]
#%% authors = J. Bieder
#%% keywords = 
#%% description = Molecular dynamics for Al
#%%<END TEST_INFO>
