#############################################
# Gold with one vacancy (107 atoms of gold) #
#############################################

# Definition of the unit cell
# ===========================
natom         107

ntypat        1

# Species     
#             Au  
znucl         
              79  

typat         107*1

acell         2.30100000000000e+01   2.30100000000000e+01   2.30100000000000e+01

xred          
              0.00000000000000e+00   1.63260959810000e-01   1.63260959810000e-01
              1.63260959810000e-01   0.00000000000000e+00   1.63260959810000e-01
              1.63260959810000e-01   1.63260959810000e-01   0.00000000000000e+00
              0.00000000000000e+00   1.66415066890000e-01   5.00000000000000e-01
              1.66415066890000e-01   0.00000000000000e+00   5.00000000000000e-01
              1.65969123860000e-01   1.65969123860000e-01   3.32135680110000e-01
              0.00000000000000e+00   0.00000000000000e+00   3.32513080460000e-01
              0.00000000000000e+00   1.63260959810000e-01   8.36739040190000e-01
              1.63260959810000e-01   0.00000000000000e+00   8.36739040190000e-01
              1.65969123860000e-01   1.65969123860000e-01   6.67864319890000e-01
              0.00000000000000e+00   0.00000000000000e+00   6.67486919540000e-01
              0.00000000000000e+00   5.00000000000000e-01   1.66415066890000e-01
              1.65969123860000e-01   3.32135680110000e-01   1.65969123860000e-01
              1.66415066890000e-01   5.00000000000000e-01   0.00000000000000e+00
              0.00000000000000e+00   3.32513080460000e-01   0.00000000000000e+00
              0.00000000000000e+00   5.00000000000000e-01   5.00000000000000e-01
              1.66496231940000e-01   3.32916578170000e-01   5.00000000000000e-01
              1.66496231940000e-01   5.00000000000000e-01   3.32916578170000e-01
              0.00000000000000e+00   3.33140408550000e-01   3.33140408550000e-01
              0.00000000000000e+00   5.00000000000000e-01   8.33584933110000e-01
              1.65969123860000e-01   3.32135680110000e-01   8.34030876140000e-01
              1.66496231940000e-01   5.00000000000000e-01   6.67083421830000e-01
              0.00000000000000e+00   3.33140408550000e-01   6.66859591450000e-01
              0.00000000000000e+00   8.36739040190000e-01   1.63260959810000e-01
              1.65969123860000e-01   6.67864319890000e-01   1.65969123860000e-01
              1.63260959810000e-01   8.36739040190000e-01   0.00000000000000e+00
              0.00000000000000e+00   6.67486919540000e-01   0.00000000000000e+00
              0.00000000000000e+00   8.33584933110000e-01   5.00000000000000e-01
              1.66496231940000e-01   6.67083421830000e-01   5.00000000000000e-01
              1.65969123860000e-01   8.34030876140000e-01   3.32135680110000e-01
              0.00000000000000e+00   6.66859591450000e-01   3.33140408550000e-01
              0.00000000000000e+00   8.36739040190000e-01   8.36739040190000e-01
              1.65969123860000e-01   6.67864319890000e-01   8.34030876140000e-01
              1.65969123860000e-01   8.34030876140000e-01   6.67864319890000e-01
              0.00000000000000e+00   6.66859591450000e-01   6.66859591450000e-01
              3.32135680110000e-01   1.65969123860000e-01   1.65969123860000e-01
              5.00000000000000e-01   0.00000000000000e+00   1.66415066890000e-01
              5.00000000000000e-01   1.66415066890000e-01   0.00000000000000e+00
              3.32513080460000e-01   0.00000000000000e+00   0.00000000000000e+00
              3.32916578170000e-01   1.66496231940000e-01   5.00000000000000e-01
              5.00000000000000e-01   0.00000000000000e+00   5.00000000000000e-01
              5.00000000000000e-01   1.66496231940000e-01   3.32916578170000e-01
              3.33140408550000e-01   0.00000000000000e+00   3.33140408550000e-01
              3.32135680110000e-01   1.65969123860000e-01   8.34030876140000e-01
              5.00000000000000e-01   0.00000000000000e+00   8.33584933110000e-01
              5.00000000000000e-01   1.66496231940000e-01   6.67083421830000e-01
              3.33140408550000e-01   0.00000000000000e+00   6.66859591450000e-01
              3.32916578170000e-01   5.00000000000000e-01   1.66496231940000e-01
              5.00000000000000e-01   3.32916578170000e-01   1.66496231940000e-01
              5.00000000000000e-01   5.00000000000000e-01   0.00000000000000e+00
              3.33140408550000e-01   3.33140408550000e-01   0.00000000000000e+00
              3.33161164200000e-01   5.00000000000000e-01   5.00000000000000e-01
              5.00000000000000e-01   3.33161164200000e-01   5.00000000000000e-01
              5.00000000000000e-01   5.00000000000000e-01   3.33161164200000e-01
              3.33028878290000e-01   3.33028878290000e-01   3.33028878290000e-01
              3.32916578170000e-01   5.00000000000000e-01   8.33503768060000e-01
              5.00000000000000e-01   3.32916578170000e-01   8.33503768060000e-01
              5.00000000000000e-01   5.00000000000000e-01   6.66838835800000e-01
              3.33028878290000e-01   3.33028878290000e-01   6.66971121710000e-01
              3.32135680110000e-01   8.34030876140000e-01   1.65969123860000e-01
              5.00000000000000e-01   6.67083421830000e-01   1.66496231940000e-01
              5.00000000000000e-01   8.33584933110000e-01   0.00000000000000e+00
              3.33140408550000e-01   6.66859591450000e-01   0.00000000000000e+00
              3.32916578170000e-01   8.33503768060000e-01   5.00000000000000e-01
              5.00000000000000e-01   6.66838835800000e-01   5.00000000000000e-01
              5.00000000000000e-01   8.33503768060000e-01   3.32916578170000e-01
              3.33028878290000e-01   6.66971121710000e-01   3.33028878290000e-01
              3.32135680110000e-01   8.34030876140000e-01   8.34030876140000e-01
              5.00000000000000e-01   6.67083421830000e-01   8.33503768060000e-01
              5.00000000000000e-01   8.33503768060000e-01   6.67083421830000e-01
              3.33028878290000e-01   6.66971121710000e-01   6.66971121710000e-01
              6.67864319890000e-01   1.65969123860000e-01   1.65969123860000e-01
              8.36739040190000e-01   0.00000000000000e+00   1.63260959810000e-01
              8.36739040190000e-01   1.63260959810000e-01   0.00000000000000e+00
              6.67486919540000e-01   0.00000000000000e+00   0.00000000000000e+00
              6.67083421830000e-01   1.66496231940000e-01   5.00000000000000e-01
              8.33584933110000e-01   0.00000000000000e+00   5.00000000000000e-01
              8.34030876140000e-01   1.65969123860000e-01   3.32135680110000e-01
              6.66859591450000e-01   0.00000000000000e+00   3.33140408550000e-01
              6.67864319890000e-01   1.65969123860000e-01   8.34030876140000e-01
              8.36739040190000e-01   0.00000000000000e+00   8.36739040190000e-01
              8.34030876140000e-01   1.65969123860000e-01   6.67864319890000e-01
              6.66859591450000e-01   0.00000000000000e+00   6.66859591450000e-01
              6.67083421830000e-01   5.00000000000000e-01   1.66496231940000e-01
              8.34030876140000e-01   3.32135680110000e-01   1.65969123860000e-01
              8.33584933110000e-01   5.00000000000000e-01   0.00000000000000e+00
              6.66859591450000e-01   3.33140408550000e-01   0.00000000000000e+00
              6.66838835800000e-01   5.00000000000000e-01   5.00000000000000e-01
              8.33503768060000e-01   3.32916578170000e-01   5.00000000000000e-01
              8.33503768060000e-01   5.00000000000000e-01   3.32916578170000e-01
              6.66971121710000e-01   3.33028878290000e-01   3.33028878290000e-01
              6.67083421830000e-01   5.00000000000000e-01   8.33503768060000e-01
              8.34030876140000e-01   3.32135680110000e-01   8.34030876140000e-01
              8.33503768060000e-01   5.00000000000000e-01   6.67083421830000e-01
              6.66971121710000e-01   3.33028878290000e-01   6.66971121710000e-01
              6.67864319890000e-01   8.34030876140000e-01   1.65969123860000e-01
              8.34030876140000e-01   6.67864319890000e-01   1.65969123860000e-01
              8.36739040190000e-01   8.36739040190000e-01   0.00000000000000e+00
              6.66859591450000e-01   6.66859591450000e-01   0.00000000000000e+00
              6.67083421830000e-01   8.33503768060000e-01   5.00000000000000e-01
              8.33503768060000e-01   6.67083421830000e-01   5.00000000000000e-01
              8.34030876140000e-01   8.34030876140000e-01   3.32135680110000e-01
              6.66971121710000e-01   6.66971121710000e-01   3.33028878290000e-01
              6.67864319890000e-01   8.34030876140000e-01   8.34030876140000e-01
              8.34030876140000e-01   6.67864319890000e-01   8.34030876140000e-01
              8.34030876140000e-01   8.34030876140000e-01   6.67864319890000e-01
              6.66971121710000e-01   6.66971121710000e-01   6.66971121710000e-01

pp_dirpath   "$ABI_PSPDIR"
pseudos      "Psdj_paw_pw_std/Au.xml"

# Electronic configuration
# ========================
nband         640
occopt        3 
tsmear        0.002
ngkpt         4 4 4 

# Convergence parameters
# ======================
ecut          5  # Irrealist. Just to reduce the computation time in order to perform some benchmark
pawecutdg     5  # Minimal value not converge to run with ecut

# Control of the SCF cycle
# ========================
nstep         10
toldfe        1.e-7

# Parallelization
# ===============
paral_kgb     1
np_spkpt         4
npband        16  
bandpp        2   # Change this line according to the tutorial
npfft         4   
timopt        -3  # Get timing information of the run in the *.abo (output) file

##############################################################
# This section is used only for regression testing of ABINIT #
##############################################################
#%%<BEGIN TEST_INFO>
#%% [setup]
#%% executable = abinit
#%% [NCPU_256]
#%% files_to_test = 
#%%   tparal_bandpw_02_MPI256.abo, tolnlines = 170, tolabs = 1.1e-3, tolrel = 1.0e-2 
#%% [paral_info]
#%% max_nprocs = 256
#%% nprocs_to_test = 256
#%% [extra_info]
#%% authors = F. Bottin, J. Bieder
#%% keywords = 
#%% description = 
#%%<END TEST_INFO>
