# LiF: visualization of a small hole polaron computed on a 3x3x3 k/q-grid.
# Multiple polaronic states.

 optdriver  7   # Electron-phonon driver
 eph_task  -13  # Activate the Variational Polaron Equations visualization

 vpq_mesh_fact 2  # >1 decreases the resolution of the polaron wavefunction
                  # *xsf file and reduces memory requirements
                  # (default: 1)

# Variational Polaron Equations results from the previous run
 getvpq_filepath "teph4vpq_6o_VPQ.nc"

# Electron-phonon matrix elements
 getgstore_filepath "teph4vpq_3o_DS1_GSTORE.nc" # 3x3x3 k/q-mesh

# Wavefunction
# Read the WFK file from the preparatory run
 getwfk_filepath "teph4vpq_2o_DS1_WFK"  # 3x3x3 k-mesh

 ngkpt    3 3 3  # These parameters have to be consistent with the WFK file

 kptopt   1
 nshiftk  1
 shiftk   0 0 0
 nband    6
 ecut     30

# Phonons
 ddb_ngqpt  3 3 3          # This has to be consistent with the DDB file
 getddb_filepath
 "LiF_eph_varpeq/out_DDB"  # Read the precomputed DDB stored in git submodule
                           # NOTE: for the input parameters used to producee
                           # the DDB file, consult the LiF_eph_varpeq/dfpt.abi

# Scattering potentials
 getdvdb_filepath
 "teph4vpq_1_DVDB"  # Read the DVDB file from the preparatory run

# Pseudopotentials
 pp_dirpath "$ABI_PSPDIR/Psdj_nc_sr_05_pbe_std_psp8"
 pseudos "Li.psp8, F.psp8"

# Structure
 natom   2
 ntypat  2
 typat   1 2
 znucl   3 9
 xred    0.0  0.0  0.0
         0.5  0.5  0.5

 acell 3*7.675
 rprim 0.0  0.5  0.5
       0.5  0.0  0.5
       0.5  0.5  0.0

##############################################################
# This section is used only for regression testing of ABINIT #
##############################################################
#%%<BEGIN TEST_INFO>
#%% [setup]
#%% executable = abinit
#%% exclude_builders = eos_nvhpc_*
#%% test_chain = teph4vpq_1.abi, teph4vpq_2.abi, teph4vpq_3.abi,
#%%              teph4vpq_4.abi, teph4vpq_5.abi, teph4vpq_6.abi,
#%%              teph4vpq_7.abi, teph4vpq_8.abi, teph4vpq_9.abi,
#%%              teph4vpq_10.abi
#%% [files]
#%% use_git_submodule = LiF_eph_varpeq
#%% files_to_test =
#%%   teph4vpq_7.abo, tolnlines = 50, tolabs = 6e-4, tolrel = 1e-1
#%% [paral_info]
#%% max_nprocs = 10
#%% [extra_info]
#%% authors = V. Vasilchenko
#%% keywords = DFPT, EPH, POLARON
#%% description =
#%%   LiF, Fm-3m space group.
#%%   Visualization of a small hole polaron computed on a 3x3x3 k/q-grid.
#%%   Multiple polaronic states.
#%%<END TEST_INFO>
