# Linear and nonlinear response calculation for AlP
# Perturbations: electric fields & atomic displacements

ndtset 5

#DATASET1 : scf calculation: GS WF in the BZ
#********************************************
   prtden1    1
    prtwf1    1
   kptopt1    1
   toldfe1    1.0d-12

#DATASET2 : non scf calculation: GS WF in the whole BZ
#*****************************************************
   getden2    1
   kptopt2    2
     iscf2   -2
   getwfk2    1
   tolwfr2    1.0d-22
    prtwf2    1

#DATASET3 : ddk on the MP grid of k-points
#*****************************************
   getwfk3    2
    rfdir3    1 1 1
   rfelfd3    2
   tolwfr3    1.0d-22
    prtwf3    1
   kptopt3    2

#DATASET4 : ddE on the MP grid of k-points
# phonons, electric fields, and strains are all done
#*****************************************
   prtden4    1
   getwfk4    2
   getddk4    3
    rfdir4    1 1 1
   rfphon4    1
  rfatpol4    1 2
   tolvrs4    1.0d-12
    prtwf4    1
   rfelfd4    3
   rfstrs4    3
   kptopt4    2
  prepanl4    1

#DATASET5 : 3DTE calculation
#***************************
   getden5    1
  get1den5    4
   getwfk5    2
   get1wf5    4
    nband5    4
   kptopt5    2
optdriver5    5
  d3e_pert1_elfd5    1
  d3e_pert1_phon5    1
 d3e_pert1_atpol5    1 2
   d3e_pert1_dir5    1 1 1
  d3e_pert2_elfd5    1
   d3e_pert2_dir5    1 1 1
  d3e_pert3_elfd5    1
   d3e_pert3_dir5    1 1 1

#Definition of the unit cell
# these cell parameters were derived from a relaxation run done with the
# current ecut and kpt values. The current ecut value used is very low but
# is done to speed the calculations.
# acell      7.2728565836E+00  7.2728565836E+00  7.2728565836E+00 Bohr # ecut 5
# acell      7.2511099467E+00  7.2511099467E+00  7.2511099467E+00 Bohr # ecut 30
acell      7.1391127387E+00  7.1391127387E+00  7.1391127387E+00 Bohr # ecut 2.8
rprim      0.0000000000E+00  7.0710678119E-01  7.0710678119E-01
           7.0710678119E-01  0.0000000000E+00  7.0710678119E-01
           7.0710678119E-01  7.0710678119E-01  0.0000000000E+00

#Definition of the atom types and pseudopotentials
 ntypat 2 # two types of atoms 
 znucl 15 13 # the atom types are Phosphorous and Aluminum

# the following norm-conserving pseudopotentials are stored in the abinit distribution, but are freely
# available through www.pseudo-dojo.org
# this set uses the Perdew-Wang parameterization of LDA for the xc model
 pp_dirpath "$ABI_PSPDIR"
 pseudos "Pseudodojo_nc_sr_04_pw_standard_psp8/P.psp8, Pseudodojo_nc_sr_04_pw_standard_psp8/Al.psp8"

#Definition of the atoms
 natom 2 # two atoms in the cell
 typat 1 2 # type 1 is Phosphorous, type 2 is Aluminum (order defined by znucl above and pseudos list)
 nband 4 # nband is restricted here to the number of filled bands only, no empty bands. 
 nbdbuf 0

# atomic positions in units of cell vectors
xred
1/4 1/4 1/4
0 0 0

#Numerical parameters of the calculation : planewave basis set and k point grid
ecut  2.8 # this value is very low but is used here to achieve very low calculation times.
        # in a production environment this should be checked carefully for convergence and
        # a more reasonable value is probably around 30
ecutsm 0.5
dilatmx 1.05
ngkpt 6 6 6 # must be checked carefully for convergence, Raman calculations converge slowly with kpt
nshiftk 4 # this Monkhorst-Pack shift pattern is used so that the symmetry of the shifted grid
          # is correct. A gamma-centered grid would also have the correct symmetry but would be
          # less efficient.
shiftk 0.5 0.5 0.5
       0.5 0.0 0.0
       0.0 0.5 0.0
       0.0 0.0 0.5

# scf parameters
nstep 8  # limit number of steps for the tutorial, in general this should be set to its 
         # default (30) or higher

# suppress printing of density, wavefunctions, etc except what is 
# explicitly requested above in the ndtset section
prtwf 0
prtden 0
prteig 0

#%%<BEGIN TEST_INFO>
#%% [setup]
#%% executable = abinit
#%% test_chain = tnlo_2.abi, tnlo_3.abi, tnlo_4.abi
#%% [files]
#%% files_to_test = 
#%%   tnlo_2.abo, tolnlines=  9, tolabs=  9.000e-07, tolrel=  6.000e-05
#%% [paral_info]
#%% max_nprocs = 2
#%% [extra_info]
#%% authors =  J. Zwanziger, M. Veithen
#%% keywords = NC, DFPT, NONLINEAR
#%% description = 
#%%   Linear and nonlinear response calculation for AlP
#%%   Perturbations: electric fields & atomic displacements
#%%<END TEST_INFO>
