! Test case for PbTiO3, derived from fixed_ebar.out file sent by JHong
           ndtset      2
            acell      7.0013914661E+00  7.0013914661E+00  8.2043906567E+00 Bohr
         berryopt2         14
           diemac      6.00000000E+00
          dilatmx      1.10000000E+00
             ecut      1.50000000E+01 Hartree
           ecutsm      5.00000000E-01 Hartree
            ddamp2     1.00000000E-01
    red_efieldbar2     0.00000000E+00  0.00000000E+00  7.43071691E-03
           ionmov           2
            natom           5
            nband        22
           ngkpt       2 2 2
            nstep        12
            ntime1       1
            ntime2       3  
           ntypat           3
          optcell           2
          strfact        10
           toldff      0.6e-6
           tolmxf      1.0e-5
            typat      1  2  3  3  3
             xred      0.0000000000E+00  0.0000000000E+00  9.3147683786E-02
                       5.0000000000E-01  5.0000000000E-01  5.5207910938E-01
                       5.0000000000E-01  5.0000000000E-01 -2.1328340990E-02
                       5.0000000000E-01  0.0000000000E+00  4.3805077392E-01
                       0.0000000000E+00  5.0000000000E-01  4.3805077392E-01
            znucl       82.00000   22.00000    8.00000


#%%<BEGIN TEST_INFO>
#%% [setup]
#%% executable = abinit
#%% [files]
#%% files_to_test =
#%%    t121.out,  tolnlines=  1, tolabs=  1.2e-01,   tolrel=  5.7e-1, fld_options=-ridiculous
#%% psp_files= 82pb.960808c_mod, 22ti.psp_mod, 8o.psp_mod 
#%% [paral_info]
#%% max_nprocs = 1
#%% [extra_info]
#%% authors = J. Hong
#%% keywords = 
#%% description = 
#%%   PbTiO3 in the tetragonal geometry.
#%%   Test berryopt=14 (finite reduced electric field calculation,relaxing cell 
#%%   parameters, e.g. optcell=2)
#%%   (XG120616 : tranferred to tests/seq)
#%% topics = Berry
#%%<END TEST_INFO>
