# He BCC fake solid, conventional cell, testing bdeigrf

ndtset 2

#Dataset 1 : ground state density

tolvrs1   1.0d-18      # SCF stopping criterion
nqpt1       0
ieig2rf1    0
smdelta1    0
rfphon1     0
getwfk1     0          # Use GS wave functions from dataset1

nqpt        1
ieig2rf     1
bdeigrf    32
smdelta     1
getwfk      1          # Use GS wave functions from dataset1
kptopt      3          # Need full k-point set for finite-Q response
rfphon      1          # Do phonon response
rfatpol     1 8        # Treat displacements of all atoms
rfdir       1 1 1      # Do all directions (symmetry will be used)
tolvrs      1.0d-8     # This default is active for sets 3-10



#Dataset 2 : phonon frequencies and band corrections
qpt2   0.0 0.0 0.0

#########################################################################
#COMMON VARIABLES
#########################################################################
#Definition of the unit cell and ecut,
acell   3*8.6
rprim  -.5  .5  .5
        .5 -.5  .5
        .5  .5 -.5
ecut 8

#Definition of the cell
   nsym 1                # No symetries
   natom  8
   xred     0.0 0.0 0.0
            0.5 0.0 0.0
            0.0 0.5 0.0
            0.0 0.0 0.5
            0.0 0.5 0.5
            0.5 0.0 0.5
            0.5 0.5 0.0
            0.5 0.5 0.5
   nband 32

#Definition of the atom types
ntypat 1          # There is only one type of atom
znucl 2           # The keyword "znucl" refers to the atomic number of the
                  # possible type(s) of atom. The pseudopotential(s)
                  # mentioned in the "files" file must correspond
                  # to the type(s) of atom. Here, the only type is Hydrogen.

#Definition of the atoms
typat 8*1           # For the first dataset, both numbers will be read,
                  # while for the second dataset, only one number will be read

#Definition of the k-point grid
 ngkpt 1 1 1
 nshiftk 1
 shiftk 0.5 0.5 0.5

#Definition of the SCF procedure
nstep 40          # Maximal number of SCF cycles
diemac 2.0

#%%<BEGIN TEST_INFO>
#%% [setup]
#%% executable = abinit
#%% test_chain = t58.in, t59.in
#%% [files]
#%% files_to_test = 
#%%   t58.out, tolnlines = 18, tolabs = 4.0e-4, tolrel = 0.31, fld_options =  -easy
#%% psp_files = 02he.fakesmooth
#%% [paral_info]
#%% max_nprocs = 1
#%% [extra_info]
#%% authors = Unknown
#%% keywords = NC, DFPT
#%% description = 
#%%   He BCC 8-atom supercell. Fake smooth pseudopotential.
#%%   For testing the electron-phonon modification of the electronic structure.
#%%   To be compared with the results of tests 50 to 59.
#%%   Use 1/2 1/2 1/2 for electronice wavevector and Gamma point for phonon wavevector
#%%   Computation of the electronic eigenvalues as well as phonon eigenfrequencies,
#%%   and corresponding ingredients for the computation of the electron-phonon effect, in the
#%%   next test 59 (no need of mrgddb with only one q point.
#%%<END TEST_INFO>
