ndtset 2

 ngkpt 16 16 16
 tsmear 0.0005 #don't forget that this is supposed to be 0.0005
 ecut 32
 pawecutdg 40
 diemix 0.25

 kptopt 4
 nstep 100
 nspinor 2
 nspden 4
 pawspnorb 0
 so_psp 0
 occopt 7
 nband 40
 nshiftk 1
 #magcon_lambda 0.01
 #constraint_kind 1
 #
 shiftk 0.0 0.0 0.0
# pp_dirpath "/home/bs544/.abinit/pseudos"
 pseudos "26fe.lda2.paw"
 prtebands 0
 prtden 1
 prteig 0
 prtwf2 0
 prtgsr 1
 getwfk2 1
 
 chkprim 0
 tolvrs 1e-9
 npband 40
 #autoparal 1
 iscf1 17
 iscf2 7
 natom 2
 ntypat 1
 typat
 1 1
 znucl 26
 xred
    0.0000000000    0.0000000000    0.0000000000
    0.5000000000    0.5000000000    0.5000000000

 acell    1.0    1.0    1.0
 rprim
    5.4200000000    0.0000000000    0.0000000000
    0.0000000000    5.4200000000    0.0000000000
    0.0000000000    0.0000000000    5.4200000000



#####################
##### DATASET 1 #####
#####################
##############################################
####               SECTION: gstate               
##############################################
 spinat
    0.0    0.0    1.458291
    0.0    0.0   -1.458000



#<JSON>
#{
#    "pseudos": [
#        {
#            "basename": "26fe.lda2.paw",
#            "type": "PawAbinitPseudo",
#            "symbol": "Fe",
#            "Z": 26,
#            "Z_val": 16.0,
#            "l_max": 2,
#            "md5": "e13a3715e02659efe180ee451578612e",
#            "filepath": "/home/bs544/.abinit/ironpsps/LDA/26fe.lda2.paw",
#            "@module": "pymatgen.io.abinit.pseudos",
#            "@class": "PawAbinitPseudo"
#        }
#    ]
#}
#</JSON>
