# LiF. Interface with CC4S code (NC pseudos)

# Number of datasets: 2-step calculation
ndtset 2
iomode 1

ngkpt     1 1 1              # Number of grid points for k-point generation
nshiftk   1
shiftk    0 0 0              # Mesh centered on gamma
istwfk    *1                 # Required (for the time being)

# Definition of the unit cell: fcc
#acell 3*7.6079786             # Lattice constants (in atomic units)
acell 3*7.7034756             # Lattice constants (in atomic units)

rprim 0.0 0.5 0.5             # FCC primitive vectors
      0.5 0.0 0.5             # (to be scaled by acell)
      0.5 0.5 0.0

ntypat 2                      # Number of species
znucl  3 9                    # Z number of each species
natom  2                      # Number of atoms
typat  1 2                    # Type of each atom (index in znucl)
xred   0.00    0.00    0.00   # Reduced coordinates of atom 1
       0.50   -0.50   -0.50   # Reduced coordinates of atom 2

# Definition of the plane-wave basis set
ecut 15.0                     # Kinetic energy cut-off, in Hartree

####################
# Dataset 1: SCF run
####################
nband1  10                   # Number of bands
tolvrs1  1.0d-8              # Tolerance to stop SCF cycles

###########################################
# Dataset 2: CC4S interface
###########################################
optdriver2  6        # Activate GWR code
gwr_task2 "CC4S"     
getden2     1
nband2     40         # Number of (occ + empty) bands
ecuteps2   4

pp_dirpath "$ABI_PSPDIR/Psdj_nc_sr_04_pw_std_psp8"
pseudos "Li.psp8, F.upf"

#%%<BEGIN TEST_INFO>
#%% [setup]
#%% executable = abinit
#%% [files]
#%% files_to_test =
#%%   t07.abo, tolnlines = 10, tolabs = 2.0e-2, tolrel = 5.0e-1;
#%%   t07o_DS2_GridVectors.yaml, tolnlines = 0, tolabs = 2.0e-3, tolrel = 5.0e-2;
#%%   t07o_DS2_GridVectors.elements, tolnlines = 5, tolabs = 1.0e-2, tolrel = 1.0e-2;
#%%   t07o_DS2_EigenEnergies.yaml, tolnlines = 0, tolabs = 2.0e-3, tolrel = 5.0e-2;
#%%   t07o_DS2_EigenEnergies.elements, tolnlines = 5, tolabs = 1.0e-2, tolrel = 1.0e-2;
#%%   t07o_DS2_CoulombPotential.yaml, tolnlines = 0, tolabs = 2.0e-3, tolrel = 5.0e-2;
#%%   t07o_DS2_CoulombPotential.elements, tolnlines = 50, tolabs = 2.0e-3, tolrel = 5.0e-2;
#%%   t07o_DS2_CoulombVertex.yaml, tolnlines = 0, tolabs = 2.0e-3, tolrel = 5.0e-2;
#%% [paral_info]
#%% max_nprocs = 8
#%% [extra_info]
#%% authors = M. Giantomassi
#%% keywords = NC, CC4S
#%% description =
#%%   LiF. Interface with CC4S code with NC pseudos
#%%<END TEST_INFO>
