#   Si in diamond structure; 2 special points; low ecut.

 acell 3*10.26311
 diemac 12.0d0
 ecut 5.8
 enunit 2   
 intxc 1
 kptopt 0  kpt   1 1 1     1 2 2   kptnrm 4
 natom  2 nband 4
 nkpt  2
 nstep 20
 nsym  24  ntypat  1
 occ 4*2.0d0 occopt  0   
 rprim   0 .5 .5  .5 0 .5  .5 .5 0
 symrel
  1  0  0   0  1  0   0  0  1
  0  1 -1   1  0 -1   0  0 -1
  0 -1  1   0 -1  0   1 -1  0
 -1  0  0  -1  0  1  -1  1  0
  0  1  0   0  0  1   1  0  0
  1  0 -1   0  0 -1   0  1 -1
  0 -1  0   1 -1  0   0 -1  1
 -1  0  1  -1  1  0  -1  0  0
  0  0  1   1  0  0   0  1  0
  0  0 -1   0  1 -1   1  0 -1
  1 -1  0   0 -1  1   0 -1  0
 -1  1  0  -1  0  0  -1  0  1
  1  0 -1   0  1 -1   0  0 -1
  0  1  0   1  0  0   0  0  1
 -1  0  1  -1  0  0  -1  1  0
  0 -1  0   0 -1  1   1 -1  0
 -1  1  0  -1  0  1  -1  0  0
  1 -1  0   0 -1  0   0 -1  1
  0  0 -1   1  0 -1   0  1 -1
  0  0  1   0  1  0   1  0  0
  0 -1  1   1 -1  0   0 -1  0
 -1  0  0  -1  1  0  -1  0  1
  1  0  0   0  0  1   0  1  0
  0  1 -1   0  0 -1   1  0 -1
 tnons 72*0.0
 tolmxf 1.d-4
 tolwfr 1.d-15
 typat  1 1  
 wtk   1 3
 xred 3*0.00d0 3*0.25d0
 znucl 14

 pp_dirpath "$ABI_PSPDIR"
 pseudos "14si.psp"

#%%<BEGIN TEST_INFO>
#%% [setup]
#%% executable = abinit
#%% [files]
#%% files_to_test = 
#%%   t04.out, tolnlines = 0, tolabs = 0.000e+00, tolrel = 0.000e+00
#%% [paral_info]
#%% max_nprocs = 1
#%% [extra_info]
#%% authors = Unknown
#%% keywords = 
#%% description = 
#%%   Same as case03, but with mkmem = 0, and mffmem=0 (out-of-core).
#%%<END TEST_INFO>
