! Silicon - drh

!comment out for second run
 postproc_setup = .true.
 num_iter = 100

!comment out for first run
!restart = plot
!restart = wannierise

!optional for first run
!wannier_plot = .true.
!wannier_plot_supercell = 3
!bands_plot = .true.

begin kpoint_path
L 0.50000  0.50000 0.5000 G 0.00000  0.00000 0.0000
G 0.00000  0.00000 0.0000 X 0.50000  0.00000 0.5000
X 0.50000 -0.50000 0.0000 K 0.37500 -0.37500 0.0000 
K 0.37500 -0.37500 0.0000 G 0.00000  0.00000 0.0000
end kpoint_path

wvfn_formatted = .false.

num_wann = 4
num_bands = 10
exclude_bands = 5-10

begin projections
!site:ang_mtm:zaxis:xaxis:radial:zona:box-size

 f=0.125,0.125,0.125 : l=0, mr=1 : r=4, zona= 0.5
 f=0.625,0.125,0.125 : l=0, mr=1 : r=4, zona= 0.5
 f=0.125,0.625,0.125 : l=0, mr=1 : r=4, zona= 0.5
 f=0.125,0.125,0.625 : l=0, mr=1 : r=4, zona= 0.5

end projections

mp_grid = 4  4  4

begin unit_cell_cart
   0.0000000   2.7154729   2.7154729
   2.7154729   0.0000000   2.7154729
   2.7154729   2.7154729   0.0000000
end unit_cell_cart

begin atoms_frac
Si 0.00   0.00   0.00
Si 0.25  0.25  0.25 
end atoms_frac

begin kpoints
    0.00000000    0.00000000    0.00000000
    0.25000000    0.00000000    0.00000000
    0.50000000    0.00000000    0.00000000
   -0.25000000    0.00000000    0.00000000
    0.00000000    0.25000000    0.00000000
    0.25000000    0.25000000    0.00000000
    0.50000000    0.25000000    0.00000000
   -0.25000000    0.25000000    0.00000000
    0.00000000    0.50000000    0.00000000
    0.25000000    0.50000000    0.00000000
    0.50000000    0.50000000    0.00000000
   -0.25000000    0.50000000    0.00000000
    0.00000000   -0.25000000    0.00000000
    0.25000000   -0.25000000    0.00000000
    0.50000000   -0.25000000    0.00000000
   -0.25000000   -0.25000000    0.00000000
    0.00000000    0.00000000    0.25000000
    0.25000000    0.00000000    0.25000000
    0.50000000    0.00000000    0.25000000
   -0.25000000    0.00000000    0.25000000
    0.00000000    0.25000000    0.25000000
    0.25000000    0.25000000    0.25000000
    0.50000000    0.25000000    0.25000000
   -0.25000000    0.25000000    0.25000000
    0.00000000    0.50000000    0.25000000
    0.25000000    0.50000000    0.25000000
    0.50000000    0.50000000    0.25000000
   -0.25000000    0.50000000    0.25000000
    0.00000000   -0.25000000    0.25000000
    0.25000000   -0.25000000    0.25000000
    0.50000000   -0.25000000    0.25000000
   -0.25000000   -0.25000000    0.25000000
    0.00000000    0.00000000    0.50000000
    0.25000000    0.00000000    0.50000000
    0.50000000    0.00000000    0.50000000
   -0.25000000    0.00000000    0.50000000
    0.00000000    0.25000000    0.50000000
    0.25000000    0.25000000    0.50000000
    0.50000000    0.25000000    0.50000000
   -0.25000000    0.25000000    0.50000000
    0.00000000    0.50000000    0.50000000
    0.25000000    0.50000000    0.50000000
    0.50000000    0.50000000    0.50000000
   -0.25000000    0.50000000    0.50000000
    0.00000000   -0.25000000    0.50000000
    0.25000000   -0.25000000    0.50000000
    0.50000000   -0.25000000    0.50000000
   -0.25000000   -0.25000000    0.50000000
    0.00000000    0.00000000   -0.25000000
    0.25000000    0.00000000   -0.25000000
    0.50000000    0.00000000   -0.25000000
   -0.25000000    0.00000000   -0.25000000
    0.00000000    0.25000000   -0.25000000
    0.25000000    0.25000000   -0.25000000
    0.50000000    0.25000000   -0.25000000
   -0.25000000    0.25000000   -0.25000000
    0.00000000    0.50000000   -0.25000000
    0.25000000    0.50000000   -0.25000000
    0.50000000    0.50000000   -0.25000000
   -0.25000000    0.50000000   -0.25000000
    0.00000000   -0.25000000   -0.25000000
    0.25000000   -0.25000000   -0.25000000
    0.50000000   -0.25000000   -0.25000000
   -0.25000000   -0.25000000   -0.25000000
end kpoints

