dis_win_max = 50.0
dis_froz_max = 8.0
kmesh_tol = 1e-08
num_bands = 12
num_wann = 9
num_iter = 100
search_shells = 24
guiding_centres = true

begin projections
Fe: s, p, d
end projections

begin unit_cell_cart
	2.46654077	0.0	0.0
	-0.8221802528315514	2.3254769407427025	0.0
	-0.8221802593255082	-1.1627384705586992	2.013922103838788
end unit_cell_cart


begin atoms_cart
Fe	0.0	0.0	0.0
end atoms_cart

mp_grid = 	4	4	4
begin kpoints
	0.125	0.125	0.125
	0.375	0.125	0.125
	-0.375	0.125	0.125
	-0.125	0.125	0.125
	0.125	0.375	0.125
	0.375	0.375	0.125
	-0.375	0.375	0.125
	-0.125	0.375	0.125
	0.125	-0.375	0.125
	0.375	-0.375	0.125
	-0.375	-0.375	0.125
	-0.125	-0.375	0.125
	0.125	-0.125	0.125
	0.375	-0.125	0.125
	-0.375	-0.125	0.125
	-0.125	-0.125	0.125
	0.125	0.125	0.375
	0.375	0.125	0.375
	-0.375	0.125	0.375
	-0.125	0.125	0.375
	0.125	0.375	0.375
	0.375	0.375	0.375
	-0.375	0.375	0.375
	-0.125	0.375	0.375
	0.125	-0.375	0.375
	0.375	-0.375	0.375
	-0.375	-0.375	0.375
	-0.125	-0.375	0.375
	0.125	-0.125	0.375
	0.375	-0.125	0.375
	-0.375	-0.125	0.375
	-0.125	-0.125	0.375
	0.125	0.125	-0.375
	0.375	0.125	-0.375
	-0.375	0.125	-0.375
	-0.125	0.125	-0.375
	0.125	0.375	-0.375
	0.375	0.375	-0.375
	-0.375	0.375	-0.375
	-0.125	0.375	-0.375
	0.125	-0.375	-0.375
	0.375	-0.375	-0.375
	-0.375	-0.375	-0.375
	-0.125	-0.375	-0.375
	0.125	-0.125	-0.375
	0.375	-0.125	-0.375
	-0.375	-0.125	-0.375
	-0.125	-0.125	-0.375
	0.125	0.125	-0.125
	0.375	0.125	-0.125
	-0.375	0.125	-0.125
	-0.125	0.125	-0.125
	0.125	0.375	-0.125
	0.375	0.375	-0.125
	-0.375	0.375	-0.125
	-0.125	0.375	-0.125
	0.125	-0.375	-0.125
	0.375	-0.375	-0.125
	-0.375	-0.375	-0.125
	-0.125	-0.375	-0.125
	0.125	-0.125	-0.125
	0.375	-0.125	-0.125
	-0.375	-0.125	-0.125
	-0.125	-0.125	-0.125
end kpoints

