ndtset 2

# wannier 90
prtwant1 2
w90iniprj1 2
w90prtunk1 0
prtden1 1

# band structure
iscf2  -2
tolwfr2  1.0d-20
ndivsm2  20
getden2 1
getwfk2 1
kptopt2 -3
kptbounds2
0  0  0      #Gam
1/2 -1/2 1/2 #H
0 0 1/2      # N
0  0  0      #Gam

1/4 1/4 1/4  # P  # removed the following for speed
1/2 -1/2 1/2 #H
1/4 1/4 1/4  # P
0 0 1/2      # N

# Added by runtests.py
output_file = "t05.abo"
indata_prefix = "t05i"
outdata_prefix = "t05o"
tmpdata_prefix = "t05t"
# end runtests.py section

# bcc iron : test wannier90 interface with nspinor=2 and nspden=4
spinat
0.00000000000000 0.00000000000000 4.00000000000000
accuracy 6   # this sets pawecutdg to 2 * ecut
autoparal 0
paral_kgb 0

chksymbreak 0
diemac 4
diemix 0.7
ecut 10
ecutsm 0.5
istwfk *1
ixc 11
kptopt 3
natom 1

nband 24
nspden 4
nspinor 2

nstep 40
occopt 7
tsmear 1e-3
prtvol 3

#Definition of the unit cell
acell 3*1.4240579775266868 Angstrom
rprim
 -1 1 1  1 -1 1  1 1 -1
# 1.00000000000000 0.00000000000000 0.00000000000000
# -0.33333333177848 0.94280904213179 0.00000000000000
# -0.33333333441130 -0.47140452114185 0.81649658028510
#scalecart
#  1.01  1.0 0.99   # This is to break the symmetry, and improve portability

#Definition of the atom types
ntypat 1
znucl 26
#Enumerate different atomic species
typat
 1
#Definition of the atoms
xcart
0.00000000000000 0.00000000000000 0.00000000000000
ngkpt 4 4 4
nshiftk 1
shiftk
0 0 0



 pp_dirpath "$ABI_PSPDIR"
 pseudos "Psdj_paw_pbe_std/Fe.xml"
## After modifying the following section, one might need to regenerate the pickle database with runtests.py -r
#%%<BEGIN TEST_INFO>
#%% [setup]
#%% executable = abinit
#%% exclude_builders = eos_gnu_13.2_serial
#%% [files]
#%% files_to_test = t05.abo, tolnlines=  64,   tolabs=  1.1e-4,   tolrel=  1.1
#%% extra_inputs = t05o_DS1_w90.win
#%% [paral_info]
#%% max_nprocs = 1
#%% [extra_info]
#%% authors = MJV and X. He
#%% keywords = PAW, Wannier90
#%% description =
#%%   Wannier function for bcc Fe.
#%%   To check whether wannier90 interface works properly with nspinor=2  and nspden=4
#%%   Small accuracy parameters, small k-mesh and large test tolerance are used.
#%%<END TEST_INFO>

