# Si structure.  Very rough 2x2x2 q-point grid (3 qpoints); low ecut.
 ndtset 5

 #istwfk *1
 ecut 35
 #nband 50
 nband 20
 tolvrs 1.0e-10
 diemac 6.0d0
 prtpot 1

# Kpoints
 ngkpt    4 4 4
 nshiftk  1
 shiftk   0.0 0.0 0.0

########################################
# Dataset 1 (GS run to get WFK0 and DEN)
########################################
 tolwfr1   1e-20
 # Cancel default values
 getwfk1   0
 nqpt1     0
 rfphon1   0
 kptopt1   1

##################################################
# Dataset 2 (NSCF run to get WFK with empty states
##################################################
 getden_filepath2 "t104o_DS1_DEN"
 getwfk2  0
 iscf2   -2
 nband2   20
 nbdbuf2  4
 tolwfr2  1e-16
 # Cancel default values
 nqpt2     0
 rfphon2   0
 kptopt2   1

##############################
# DFPT runs on a 2x2x2 q-mesh
#############################
 getwfk     1
 nqpt       1
 rfphon     1
 kptopt     3

 # 2x2x2 Q-mesh
 qpt3 0.00000000E+00  0.00000000E+00  0.00000000E+00
 qpt4 5.00000000E-01  0.00000000E+00  0.00000000E+00
 qpt5 5.00000000E-01  5.00000000E-01  0.00000000E+00
# Structure
 chksymbreak 0
  natom 2
 ntypat 1
 typat 1 1
 znucl 14
 xred
    0.0000000000E+00  0.0000000000E+00  0.0000000000E+00
    2.5000000000E-01  2.5000000000E-01  2.5000000000E-01
 acell    1.0000000000E+00  1.0000000000E+00  1.0000000000E+00
 rprim
    6.3285005244E+00  0.0000000000E+00  3.6537614813E+00
    2.1095001748E+00  5.9665675141E+00  3.6537614813E+00
    0.0000000000E+00  0.0000000000E+00  7.3075229627E+00

 pp_dirpath "$ABI_PSPDIR"
 pseudos "Si-GGA.psp8"


#%%<BEGIN TEST_INFO>
#%% [setup]
#%% executable = abinit
#%% exclude_builders = eos_nvhpc_23.9_elpa, eos_nvhpc_24.9_openmpi
#%% need_cpp_vars = HAVE_NETCDF_MPI
#%% test_chain = t104.abi, t105.abi, t106.abi, t107.abi
#%% [files]
#%% files_to_test =
#%%   t104.abo, tolnlines = 20, tolabs = 1.1e-3, tolrel = 0.06
#%% [paral_info]
#%% max_nprocs = 10
#%% [shell]
#%% post_commands = ww_mv t104o_DS2_WFK t107o_DS20_WFK
#%% [extra_info]
#%% authors = R Gupta M. Verstraete
#%% keywords = NC, DFPT, EPH
#%% description =
#%%   Preparatory run for the calculation of the Fan-Migdal + Debye-Waller self-energy
#%%  in Si structure. Very rough 2x2x2 q-point grid (3 qpoints); low ecut.
#%%<END TEST_INFO>
