# Inspired from v9[141]
# AlP solid

ionmov 2
optcell 2
ntime 3

ndtset 4

cprj_in_memory1 0
cprj_in_memory2 1
cprj_in_memory3 0
cprj_in_memory4 1

wfoptalg1 114
wfoptalg2 114
wfoptalg3 111
wfoptalg4 111

nblock_lobpcg1 4
nblock_lobpcg2 4

# unconverged
ecut 5
pawecutdg 10

nstep 15
nline  8

# bands and spinors
nband  8
nbdbuf 2

toldff 1.0d-6

kptopt 3

# severely unconverged
ngkpt 3*2
nshiftk 1
shiftk 3*0

istwfk *1

prtwf 0
prteig 0
prtden 0

# change cell parameter to increase the stress tensor
#acell    3*10.3008969711
acell    3*10

rprim    0.000000000000000   0.500000000000000   0.500000000000000
         0.500000000000000   0.000000000000000   0.500000000000000
         0.500000000000000   0.500000000000000   0.000000000000000

natom    2
ntypat   2
typat    1 2
znucl    15 13
# change atomic positions in order to have non-zero forces (so we can test them)
xred     0.240000000000000   0.255000000000000   0.249000000000000
         0.000000000000000   0.000000000000000   0.000000000000000
#xred     0.250000000000000   0.250000000000000   0.250000000000000
#         0.000000000000000   0.000000000000000   0.000000000000000

pp_dirpath="$ABI_PSPDIR/Psdj_paw_pbe_std/"
pseudos="P.xml, Al.xml"

##############################################################
# This section is used only for regression testing of ABINIT #
##############################################################
#%%<BEGIN TEST_INFO>
#%% [setup]
#%% executable = abinit
#%% exclude_builders = alps_intel_2025_elpa
#%% need_cpp_vars = HAVE_FFTW3 or HAVE_DFTI
#%% [files]
#%% files_to_test =
#%%   t19.abo, tolnlines=  0, tolabs=  0, tolrel= 0, fld_options = -ridiculous
#%% [paral_info]
#%% max_nprocs = 1
#%% [extra_info]
#%% authors = L. Baguet
#%% keywords = PAW,CPRJ
#%% description = Compare cprj_in_memory=1 with cprj_in_memory=0 (lobpcg2 and chebfi2) for cell optimization. PAW,istwfk=1.
#%%<END TEST_INFO>
