# Fe LDA

pawovlp 100

nstep   12

# CONVERGENCE PARAM
tolvrs 1e-20
ecut 40
pawecutdg  40
nband  24
occopt 7
tsmear 1600 K

# PHYSICAL DATA
natom 1 ntypat  1 typat  1
znucl  26.0
xred  0.d0   0.d0   0.d0

#Definition of the unit cell
#acell   3*5.42
acell   3*2 # very small cell so the PAW sphere is bigger than the cell
rprim     -0.5  0.5  0.5
           0.5 -0.5  0.5
           0.5  0.5 -0.5

# POINTSK
kptopt 3
ngkpt 1 1 1
nshiftk 1
shiftk 0.0 0.0 0.0

pp_dirpath "$ABI_PSPDIR"
pseudos "Psdj_paw_pbe_std/Fe.xml"

#%%<BEGIN TEST_INFO>
#%% [setup]
#%% executable = abinit
#%% [files]
#%% files_to_test =
#%%   t39.abo, tolnlines = 0, tolabs = 0, tolrel = 0.00e+00, fld_options = -easy
#%% [paral_info]
#%% max_nprocs = 1
#%% [extra_info]
#%% authors = L. Baguet
#%% keywords = PAW
#%% description =
#%%  Tests the overlaping of a PAW sphere with itself (rare case, but possible...).
#%%<END TEST_INFO>
