# ----------------------------------------
# -          Input file for abinit       -
# -                                      -
# -         Alu fcc                      -
# ----------------------------------------

# 2-Options for output:
# ---------------------
  enunit 2
  prtvol 0
  prtden 0
  prtnabla 1

# 3-Parameters governing the convergence:
# ---------------------------------------
  ecut 10.
  pawecutdg 50.
  nband 20
  nstep 5
  toldfe 1.d-5

# 4-Options for the choice of calculation:
# ----------------------------------------
  occopt 3
  tsmear 0.0036749
  ionmov 0
  optcell 0
  nspinor 2

# 5-Definition of the unit cell:
# ------------------------------
  acell 3*7.38796
  rprim 1.0 0.0 0.0
        0.0 1.0 0.0
        0.0 0.0 1.0
  natom 4
  ntypat 1
  typat 4*1
  znucl 13
  xred  0.0 0.0 0.0
        0.5 0.5 0.0
        0.5 0.0 0.5
        0.0 0.5 0.5
  amu 26.98

# 6-Definition of special K-points:
# ---------------------------------
  kptopt 0
  nkpt 1
  kpt 0. 0. 0.
  wtk  1.0
  istwfk 1

# 7-Symmetries of the lattice:
# ----------------------------
  nsym 1
  chkprim 0

  pp_dirpath "$ABI_PSPDIR"
  pseudos "Al.gga.uspp.paw"

<<<<<<< HEAD
ndtset 5

#Set 1 : ground state self-consistency
#*************************************
getwfk1   0            
kptopt1   1           
nqpt1   0           
tolvrs1   1.0d-4  


#Set 2: Response function calculation of d/dk wave function
#**********************************************************
iscf2    -3     
rfelfd2   2    
tolwfr2   1.0d-4
rfdir2   1 1 1 

#Set 3: Response function calculation of d2/dkdk wave function
#*************************************************************
getddk3   2
iscf3    -3
rf2_dkdk3 1
tolwfr3   1.0d-4

#Set 4 : Response function calculation of Q=0 phonons and electric field
#***********************************************************************
getddk4   2
rfelfd4   3
rfphon4   1
rfatpol4  1 2
rfdir4   1 1 1
tolvrs4   1.0d-3
prepalw4  2

#Set 5 : Dynamic Quadrupoles calculation
#***************************************
optdriver5 10
get1wf5   4
get1den5  4
getddk5   2
getdkdk5  3
lw_qdrpl5 1

#######################################################################
#Common input variables

getwfk  1            
useylm  1
kptopt 2

#Definition of the unit cell
acell 3*10.61          
rprim  0.0  0.5  0.5   
       0.5  0.0  0.5   
       0.5  0.5  0.0   

#Definition of the atom types
ntypat 2               
znucl 13 33            
                       
#Definition of the atoms
natom 2               
typat 1 2            
xred                
                    
   0.0  0.0  0.0    
   0.25 0.25 0.25   

#Gives the number of bands
nband  4  

#Definition of the planewave basis set
ecut    5.0           # Maximal kinetic energy cut-off, in Hartree

#Definition of the k-point grid
ngkpt 2 2 2
nshiftk 4 
shiftk 0.5 0.5 0.5
       0.5 0.0 0.0
       0.0 0.5 0.0
       0.0 0.0 0.5

#Definition of the SCF procedure
nstep 30       
diemac 9.0    
             
 pp_dirpath "$ABI_PSPDIR"
 pseudos "13al.981214.fhi, As.fhi"

##############################################################
# This section is used only for regression testing of ABINIT #
##############################################################
## After modifying the following section, one might need to regenerate the pickle database with runtests.py -r
#%%<BEGIN TEST_INFO>
#%% [setup]
#%% executable = abinit
#%% test_chain = t100.abi, t101.abi
#%% [files]
#%% files_to_test =
#%%   t100.abo, tolnlines = 0, tolabs = 0.000e+00, tolrel = 0.000e+00, fld_options = -easy
#%% [paral_info]
#%% max_nprocs = 1
#%% [extra_info]
#%% authors = N. Brouwer, M. Torrent
#%% keywords =
#%% description =
#%%   Test to prepare a SOC conductivity calculation (test v9#t101)
#%%   Ground state calculation for 4 Al atoms
#%%   The number of bands is unrealistic. This test produces files that are inputs for test 101.
#%%   It tests the following parts of the code:
#%%     optic_paw, optic_paw_core, optic_paw_soc
#%%   Note that, in addition to the psp file, the spinor core wave functions file is needed.

#%%<END TEST_INFO>
