# Test Fe XML pseudopotential with and without sppol

ndtset 2
nsppol1 1
nsppol2 2
spinat2 0 0 5.0

acell 3*2.870 Angstr
ecut 8
kptopt 1
ngkpt 6 6 6
occopt 4
tsmear 0.001
nstep 20
natom 1
ntypat 1
typat 1
znucl 26
xred 3*0

rprim  
-0.5  0.5  0.5
 0.5 -0.5  0.5
 0.5  0.5 -0.5
tolwfr 1.0d-14
nband 9

## After modifying the following section, one might need to regenerate the pickle database with runtests.py -r
#%%<BEGIN TEST_INFO>
#%% [setup]
#%% executable = abinit
#%% [files]
#%% files_to_test = 
#%%  t02.out, tolnlines = 32, tolabs = 1.1e-06, tolrel = 9.00e-01
#%% psp_files = 26fe.GGA.psml
#%% [paral_info]
#%% max_nprocs = 14
#%% [extra_info]
#%% authors = M. Verstraete
#%% keywords = NC
#%% description = 
#%%   Bulk iron, with and without spin-polarization 
#%%<END TEST_INFO>
