# Test Au XML pseudopotential - ONCVPSP

natom   1
ntypat  1
typat   1
znucl   79
acell   4.08    4.08    4.08 Angstrom
rprim   0.0     0.5     0.5 
        0.5     0.0     0.5
        0.5     0.5     0.0
xred  0.000  0.000 0.000
natrd   1
natfix  1
iatfix  1
optcell 0
dilatmx 1.1
ecut    8.970000
ecutsm  0.5
nband   10
kptopt  1
ngkpt  10 10 10
nshiftk 4
shiftk  0.5 0.5 0.5
        0.5 0.0 0.0
        0.0 0.5 0.0
        0.0 0.0 0.5
iscf    5
nstep   30
toldfe  1.0d-06
tolmxf  1.0d-05
occopt  3
tsmear  0.01
ionmov  0
ntime      0
prtden     0
prtpot     0
prtvha     0
prtvhxc    0
prtvxc     0
prt1dm     0
ixc -1009

#%%<BEGIN TEST_INFO>
#%% [setup]
#%% executable = abinit
#%% [files]
#%% files_to_test = 
#%%  t14.out, tolnlines = 0, tolabs = 1.1e-06, tolrel = 0.00e+00
#%% psp_files = 79_Au_atom.psml
#%% [paral_info]
#%% max_nprocs = 8
#%% [extra_info]
#%% authors = Y. Pouillon, J. Junquera
#%% keywords = NC
#%% description = 
#%%   Total energy vs. cell size for bulk FCC gold
#%%<END TEST_INFO>
