num_wann        =   4
num_iter          = 20

#Plotting
wannier_plot = true

#Initial projections
begin projections
Si:sp3
end projections
