#   Si in diamond structure; 60 special points in core; low ecut.
#   Similar to paral[01] but it uses mkmem 0, mffmem 0

 acell 3*10.26311
 densty 1.2
 diemac 12.0d0 
 ecut 5.8
 intxc 1
 localrdwf 1
 natom  2 nband 4
 ngfft  3*16  
 nkpt  60
 nline 3   
 nstep   2
 nsym  24 
 ntypat  1
 rprim   0 .5 .5  .5 0 .5  .5 .5 0
 symrel
  1  0  0   0  1  0   0  0  1
  0  1 -1   1  0 -1   0  0 -1
  0 -1  1   0 -1  0   1 -1  0
 -1  0  0  -1  0  1  -1  1  0
  0  1  0   0  0  1   1  0  0
  1  0 -1   0  0 -1   0  1 -1
  0 -1  0   1 -1  0   0 -1  1
 -1  0  1  -1  1  0  -1  0  0
  0  0  1   1  0  0   0  1  0
  0  0 -1   0  1 -1   1  0 -1
  1 -1  0   0 -1  1   0 -1  0
 -1  1  0  -1  0  0  -1  0  1
  1  0 -1   0  1 -1   0  0 -1
  0  1  0   1  0  0   0  0  1
 -1  0  1  -1  0  0  -1  1  0
  0 -1  0   0 -1  1   1 -1  0
 -1  1  0  -1  0  1  -1  0  0
  1 -1  0   0 -1  0   0 -1  1
  0  0 -1   1  0 -1   0  1 -1
  0  0  1   0  1  0   1  0  0
  0 -1  1   1 -1  0   0 -1  0
 -1  0  0  -1  1  0  -1  0  1
  1  0  0   0  0  1   0  1  0
  0  1 -1   0  0 -1   1  0 -1
 xred 3*0.00d0 3*0.25d0
 timopt 2
 tnons 72*0.0
 tolwfr 1.d-20
 typat  1 1  
 znucl 14
 paral_kgb 0
 kptopt 0
 kpt
  .43750000000000  .43750000000000  .43750000000000
  .43750000000000  .43750000000000  .31250000000000
  .43750000000000  .43750000000000  .18750000000000
  .43750000000000  .43750000000000  .06250000000000
  .50000000000000  .50000000000000  .06250000000000
  .56250000000000  .37500000000000  .00000000000000
  .56250000000000  .25000000000000  .00000000000000
  .43750000000000  .43750000000000  .56250000000000
  .43750000000000  .31250000000000  .31250000000000
  .43750000000000  .31250000000000  .18750000000000
  .43750000000000  .31250000000000  .06250000000000
  .37500000000000  .50000000000000  .06250000000000
  .50000000000000  .62500000000000  .18750000000000
  .43750000000000  .31250000000000  .68750000000000
  .43750000000000  .31250000000000  .56250000000000
  .43750000000000  .18750000000000  .18750000000000
  .43750000000000  .18750000000000  .06250000000000
  .25000000000000  .50000000000000  .06250000000000
  .37500000000000  .62500000000000  .18750000000000
  .43750000000000  .18750000000000  .68750000000000
  .43750000000000  .18750000000000  .56250000000000
  .43750000000000  .06250000000000  .06250000000000
  .12500000000000  .50000000000000  .06250000000000
  .25000000000000  .62500000000000  .18750000000000
  .56250000000000  .25000000000000  .62500000000000
  .43750000000000  .06250000000000  .56250000000000
  .00000000000000  .06250000000000  .50000000000000
  .56250000000000  .37500000000000  .50000000000000
  .56250000000000  .25000000000000  .50000000000000
  .56250000000000  .37500000000000  .37500000000000
  .56250000000000  .25000000000000  .37500000000000
  .56250000000000  .25000000000000  .25000000000000
  .31250000000000  .31250000000000  .31250000000000
  .31250000000000  .31250000000000  .18750000000000
  .31250000000000  .31250000000000  .06250000000000
  .37500000000000  .37500000000000  .06250000000000
  .50000000000000  .50000000000000  .18750000000000
  .31250000000000  .31250000000000  .68750000000000
  .31250000000000  .18750000000000  .18750000000000
  .31250000000000  .18750000000000  .06250000000000
  .25000000000000  .37500000000000  .06250000000000
  .37500000000000  .50000000000000  .18750000000000
  .50000000000000  .62500000000000  .31250000000000
  .31250000000000  .06250000000000  .06250000000000
  .12500000000000  .37500000000000  .06250000000000
  .25000000000000  .50000000000000  .18750000000000
  .37500000000000  .62500000000000  .31250000000000
  .00000000000000  .06250000000000  .37500000000000
  .12500000000000  .50000000000000  .18750000000000
  .00000000000000  .18750000000000  .50000000000000
  .18750000000000  .18750000000000  .18750000000000
  .18750000000000  .18750000000000  .06250000000000
  .25000000000000  .25000000000000  .06250000000000
  .37500000000000  .37500000000000  .18750000000000
  .18750000000000  .06250000000000  .06250000000000
  .12500000000000  .25000000000000  .06250000000000
  .25000000000000  .37500000000000  .18750000000000
  .00000000000000  .06250000000000  .25000000000000
  .06250000000000  .06250000000000  .06250000000000
  .12500000000000  .12500000000000  .06250000000000
 kptnrm     1
 wtk
  .00390625000000  .01171875000000  .01171875000000  .01171875000000
  .01171875000000  .01171875000000  .01171875000000  .01171875000000
  .01171875000000  .02343750000000  .02343750000000  .02343750000000
  .02343750000000  .02343750000000  .02343750000000  .01171875000000
  .02343750000000  .02343750000000  .02343750000000  .02343750000000
  .02343750000000  .01171875000000  .02343750000000  .02343750000000
  .02343750000000  .02343750000000  .01171875000000  .02343750000000
  .02343750000000  .01171875000000  .02343750000000  .01171875000000
  .00390625000000  .01171875000000  .01171875000000  .01171875000000
  .01171875000000  .01171875000000  .01171875000000  .02343750000000
  .02343750000000  .02343750000000  .02343750000000  .01171875000000
  .02343750000000  .02343750000000  .02343750000000  .01171875000000
  .02343750000000  .01171875000000  .00390625000000  .01171875000000
  .01171875000000  .01171875000000  .01171875000000  .02343750000000
  .02343750000000  .01171875000000  .00390625000000  .01171875000000


 pp_dirpath "$ABI_PSPDIR"
 pseudos "14si.psp"

#%%<BEGIN TEST_INFO>
#%% [setup]
#%% executable = abinit
#%% [files]
#%% [paral_info]
#%% nprocs_to_test = 1, 2, 4, 10
#%% max_nprocs = 10
#%% [NCPU_1]
#%% files_to_test = t02_MPI1.abo, tolnlines=   0,   tolabs=  0.0,      tolrel= 0.0
#%% [NCPU_2]
#%% files_to_test = t02_MPI2.abo, tolnlines=   0,   tolabs=  0.0,      tolrel= 0.0
#%% [NCPU_4]
#%% files_to_test = t02_MPI4.abo, tolnlines=   0,   tolabs=  0.0,      tolrel= 0.0
#%% [NCPU_10]
#%% files_to_test = t02_MPI10.abo, tolnlines=   0,   tolabs=  0.0,      tolrel= 0.0
#%% [extra_info]
#%% keywords = NC 
#%% authors = Unknown
#%% description = Si in diamond structure; 60 special points, not in core; low ecut.
#%%<END TEST_INFO>
