# Testing CTQMC options
#
# == Convergency and starting
# DATASET 1: LDA
# DATASET 2: DMFT
ndtset 2
jdtset 1 2
prtvol    4
pawprtvol 3
getwfk  -1

##### CONVERGENCE PARAMETERS
nstep1   30
nstep2   1
ecut      10
pawecutdg 40
tolvrs  1.0d-10
nband     17
occopt 3 tsmear 0.0173918086  #0.00173918086
diemix 0.1

##### PHYSICAL PARAMETERS
natom 1 ntypat  1 typat  1
znucl  58.0
xred  0.d0   0.d0   0.d0
acell   3*9.1274
rprim 0.0 1/2 1/2
      1/2 0.0 1/2
      1/2 1/2 0.0

# == Points k and symetries
paral_kgb 0
fftalg 112 # Needed to preserve the old behaviour.
kptopt 4
kptrlatt 4 0 0 0 4 0 0 0 4
nshiftk 4
shiftk 1/2 1/2 1/2
       1/2 0.0 0.0
       0.0 1/2 0.0
       0.0 0.0 1/2

# == LDA+DMFT
usedmft1 0
usedmft2 1
dmftbandi 5
dmftbandf 17
dmft_nwli 2 #500
dmft_iter 1
dmftcheck 0

# == CTQMC
dmft_solv 7 # CTQMC
dmftqmc_l 500
dmftqmc_n 1.d3
dmftqmc_therm 100

dmftctqmc_basis   2
dmftctqmc_meas    100

dmft_mxsf 0.1
dmft_dc 8
dmft_yukawa_param 4
dmft_epsilon_yukawa 0.1
dmft_lambda_yukawa 0.2

# == DFT+U
usepawu1    4
usepawu     14
dmatpuopt  1   # choose expression of the density matrix
lpawu   3   # U on d-orbitals of Ni, no U on oxygen
upawu1  0.00     # values in Hartree
upawu2  6 eV     # values in Hartree
jpawu1  0.0000  # values in Hartree
jpawu2  0.5 eV

dmft_triqs_off_diag 1
dmft_triqs_leg_measure 1
dmft_triqs_nleg 10
dmft_triqs_loc_n_max 3

dmft_tolfreq  0.01

use_yaml 1

 pp_dirpath "$ABI_PSPDIR"
 pseudos "58ce.paw"

#%%<BEGIN TEST_INFO>
#%% [setup]
#%% executable = abinit
#%% [files]
#%% [paral_info]
#%% nprocs_to_test = 4,10
#%% max_nprocs = 10
#%% [NCPU_4]
#%% files_to_test =
#%%   t92_MPI4.abo, use_yaml = yes , tolnlines=  178, tolabs=  0.03, tolrel= 0.03, fld_options = -medium
#%% file = ./t92_MPI4.yaml
#%% [NCPU_10]
#%% files_to_test =
#%%   t92_MPI10.abo, use_yaml = yes, tolnlines=   178, tolabs=  0.06, tolrel= 0.05, fld_options = -medium
#%% file = ./t92_MPI10.yaml
#%% [extra_info]
#%% authors = J. Bieder, B. Amadon
#%% keywords = DMFT, CTQMC
#%% description = Test CT-QMC parallelism
#%%<END TEST_INFO>
