# Multi_dataset parameters
ndtset 2       # Two datasets
jdtset 1 2     # one followed by two
getden -1      # Second one takes the density of first

pawprtvol 3  # Printing additional information
prtvol 4     #

############################
# Structural Parameters
############################
# Definition of unit cell
acell 3*5.44761       # lattice parameter
rprim -0.5  0.5  0.5  # Primitive cell
       0.5 -0.5  0.5
       0.5  0.5 -0.5

# Definition atom
ntypat 1   # number of different types of atoms
znucl 26   # z number of atom

# Definition of the atoms
natom 1           # number of atom
typat 1           # type of atom
xred 0.0 0.0 0.0  # reduced coordinates for primitive cell

# Definition pseudopotentials
pp_dirpath "$ABI_PSPDIR"            # repository with pseudopotentials
pseudos "26fe.lda2.paw"

# Definition of the k-point grid
kptopt 4
ngkpt 4 4 4              # Reciprocal space vectors are built from
                         # the rprim parameters. This is the size of the
                         # reciprocal k-points.
nshiftk 2                # Convergence of the density with regular shifts.
shiftk 0.25  0.25  0.25
      -0.25 -0.25 -0.25

############################
# Energy Parameters
############################

ecut 20         # Maximal plane-wave kinetic energy cut-off, in Hartree
pawecutdg 50    # PAW: Energy Cutoff for the Double Grid
nband 40        # Number of bands
occopt 3        # Smearing type
tsmear 2000 K   # Electronic smearing temperature

############################
# DFT Calculation
############################

usedmft1 0       # DFT alone
nstep1 30        # Number of iterations for the DFT convergence
tolvrs 1.0d-10  # Tolerance of the density for DFT convergence

# Definition of the spin properties
nsppol 1     # No spin-polarization
nspden 4     # No Scalar magnetism
nspinor 2    # No Spin-orbit
spnorbscl 10 # SOC scaling

############################
# DMFT Calculation
############################

usedmft2  1       # DMFT calculation
nstep2    1       # Number of iterations for the DFT+DMFT convergence
nline2    7       # Number of line minimisations
nnsclo2   10      # Number of non-self consistent loops

#Definition for DMFT loop
dmftbandi 9             # First KS band included in the projection for Wannier orbitals
dmftbandf 26            # Last KS band included in the projection for Wannier orbitals
dmft_triqs_n_iw 100     # Linear frequency mesh
dmft_iter 1             # Number of iterations of the DMFT part.
                        # We often use single-shot, since anyway the charge density
                        # changes through the DFT+DMFT anyway.
dmft_mxsf 0.7           # Mixing of the old and new self-energy at every iterations.
dmft_dc   6             # Double counting type. 6 is Around Mean Field (AMF)

#Definition of impurity solver
dmft_solv         6     # TRIQS in the density-density approximation
dmft_triqs_n_tau        50     # Number of time slices for G(tau).
dmft_triqs_n_cycles        12500   # Number of QMC sweeps
dmft_triqs_n_warmup_cycles_init   5000   # Thermalization
dmft_triqs_n_warmup_cycles_restart 0

dmft_triqs_length_cycle 10
dmft_triqs_off_diag 0
dmft_triqs_basis 1
dmft_triqs_dlr_wmax 1.0
dmft_triqs_dlr_epsilon 1d-2

dmft_triqs_entropy 1
dmft_triqs_compute_integral 1
dmft_triqs_gaussorder 2
dmft_triqs_nsubdivisions 3
dmft_triqs_shift_mu 1.2

#Definition of DFT+U
usepawu1    4           #
usepawu2    14          #
dmatpuopt   2           #
lpawu       2           # Angular momentum for the projected Hamiltonian
upawu1      0.00 eV
upawu2      5.5  eV  # Values of U for each angular momentum
jpawu1      0.00 eV
jpawu2      0.84 eV  # Values of J

#%%<BEGIN TEST_INFO>
#%% [setup]
#%% executable = abinit
#%% need_cpp_vars = HAVE_TRIQS_v3_2
#%% [paral_info]
#%% nprocs_to_test = 8
#%% max_nprocs = 8
#%% [NCPU_8]
#%% files_to_test = t109_MPI8.abo, tolnlines = 36, tolabs = 1.e-3, tolrel = 1.e-1, fld_options=-easy
#%% [extra_info]
#%% authors = E. Castiel, F. Gendron
#%% keywords = DMFT, TRIQS
#%% description = DFT+DMFT for Fe with TRIQS: test entropy with spinors
#%% topics = DMFT
#%%<END TEST_INFO>
