# _== Convergency and starting
# DATASET 1: LDA
# DATASET 2,3,4: LDA+DMFT
ndtset 3
jdtset 1 2 3

getden -1
getself -1
nnsclo1 0
nline 5
nnsclo 5

prtvol    4
pawprtvol 2

##### CONVERGENCE PARAMETERS
nstep1   30
nstep    1
ecut     4 # low cutoff !
pawecutdg 8
tolvrs  1.0d-5
nband     32
nbdbuf    2
occopt 3 tsmear 1200 K

##### PHYSICAL PARAMETERS
natom 5 ntypat 3 typat 1 2 3 3 3
znucl  23.0 38.0 8.0
# V Sr O*3
xred 0.00 0.00 0.00
     0.50 0.50 0.50
     0.50 0.00 0.00
     0.00 0.50 0.00
     0.00 0.00 0.50
acell   3*7.2605
rprim 1.0 0.0 0.0    #Real space PRIMitive translations
      0.0 1.0 0.0
      0.0 0.0 1.0

# == Points k and symetries
ngkpt   2 2 2    #K - PoinTs grid : Real space LATTice
nshiftk 2
shiftk 1/2 1/2 1/2
       0.0 0.0 0.0
istwfk *1

nsppol 2
nspden 2
nspinor 1

# == LDA+DMFT
usedmft1 0
usedmft  1
dmftbandi 5 # include Sr s band
dmftbandf 23 # include V t2g bands
dmft_nwli 500
dmft_iter 1
dmft_mxsf 0.7
dmft_dc 5

dmft_triqs_wmax 1.0

dmft_solv 7 # Rotationally invariant TRIQS
dmft_triqs_off_diag 0
dmftctqmc_basis2 0
dmftctqmc_basis3 3

# == DFT+U
usepawu1    0
usepawu     14
dmatpuopt  1   # The density matrix: the simplest expression.
lpawu2 2 -1 -1
lpawu  2  1 -1
upawu1  0.00  0.0  0.0  eV
f4of2_sla3  0.0  0.0  0.0
upawu   3.1333333333333333  1.0  0.0  eV
jpawu   0.7583333333333333  0.0  0.0  eV

paral_kgb 0

dmftctqmc_meas 10
dmftqmc_therm 100
dmftqmc_l 500
dmftqmc_n 1.d3
dmft_t2g2 1

prtwf 0

 pp_dirpath "$ABI_PSPDIR"
 pseudos "23v.paw, 38sr.paw, 8o.paw"


#%%<BEGIN TEST_INFO>
#%% [setup]
#%% executable = abinit
#%% need_cpp_vars = HAVE_TRIQS_v3_2
#%% [shell]
#%% [paral_info]
#%% nprocs_to_test = 8
#%% max_nprocs = 8
#%% [NCPU_8]
#%% files_to_test = t111_MPI8.abo, tolnlines = 0, tolabs = 0.0, tolrel = 0.0;
#%%                 t111_MPI8o_DS3_CTQMC_HISTOGRAM_iatom0001.dat, tolnlines = 0, tolabs = 0.0, tolrel = 0.0;
#%%                 t111_MPI8o_DS3_CTQMC_HISTOGRAM_iatom0002.dat, tolnlines = 0, tolabs = 0.0, tolrel = 0.0;
#%% [extra_info]
#%% authors = B. Amadon, E. Castiel
#%% keywords = DMFT, TRIQS
#%% description = DFT+DMFT for SrVO3: test different basis with TRIQS
#%% topics = DMFT, parallelism
#%%<END TEST_INFO>
