# _== Convergency and starting
# DATASET 1: LDA
# DATASET 2: LDA+DMFT
ndtset 1
jdtset 2

use_yaml 1
getden2 1
# nline1 7
# nnsclo1 7
nline2 5
#nnsclo2 10

prtvol    4
pawprtvol 3

##### CONVERGENCE PARAMETERS
nstep1   30
nstep2   2
ecut      12 # low cutoff !
ngfft 32 32 32
ngfftdg 32 32 32
pawecutdg 20
tolvrs1 1.0d-7
toldfe2 1.0d-8
# Added in v9.11:
tolwfr_diago 1d-30
# Default of tolwfr_diago is tolwfr (or, for LOBPCG only, 1d-20 if tolwfr is not defined)
# To reproduce old behaviour : set stringent value of tolwfr_diago
nband     32
nbdbuf    2
occopt 3 tsmear 1200 K

##### PHYSICAL PARAMETERS
natom 5 ntypat 3 typat 1 2 3 3 3
znucl  23.0 38.0 8.0
# V Sr O*3
xred 0.00 0.00 0.00
     0.50 0.50 0.50
     0.50 0.00 0.00
     0.00 0.50 0.00
     0.00 0.00 0.50
acell   3*7.2605
rprim 1.0 0.0 0.0    #Real space PRIMitive translations
      0.0 1.0 0.0
      0.0 0.0 1.0

# == Points k and symetries
ngkpt   2 2 2    #K - PoinTs grid : Real space LATTice
nshiftk 2
shiftk 1/2 1/2 1/2
       0.0 0.0 0.0
istwfk *1

# == LDA+DMFT
usedmft1 0
usedmft2 1
dmftbandi 5 # include Sr s band
dmftbandf 23 # include V t2g bands
dmft_nwli 500
dmft_iter 1
dmft_mxsf 0.7
dmft_dc 8
dmft_yukawa_param 1

dmft_prtwan 1
dmft_triqs_wmax 1.0

dmft_solv 7 # Rotationally invariant TRIQS

# == DFT+U
usepawu1    4
usepawu     14
dmatpuopt  1   # The density matrix: the simplest expression.
lpawu  2  0 -1
upawu1  0.00  0.0  0.0  eV
f4of2_sla3  0.0  0.0  0.0
upawu2  3.1333333333333333  1.0  0.0  eV
jpawu2  0.7583333333333333  0.0  0.0  eV

paral_kgb1 0
paral_kgb2 1
np_spkpt2 2
npband2 2
npfft2 1
bandpp2 16

dmftctqmc_meas 100
dmftctqmc_basis 0
dmftqmc_therm 100
dmftqmc_l 500
dmft_triqs_off_diag 0
dmftqmc_n 1.d3

prtwf 0

 pp_dirpath "$ABI_PSPDIR"
 pseudos "23v.paw, 38sr.paw, 8o.paw"

#%%<BEGIN TEST_INFO>
#%% [setup]
#%% executable = abinit
#%% [files]
#%% [paral_info]
#%% nprocs_to_test = 4
#%% max_nprocs = 4
#%% [NCPU_4]
#%% files_to_test =
#%%   t86_MPI4.abo, use_yaml = yes, tolnlines = 5, tolabs = 2.0e-2, tolrel = 1.0, fld_options = -easy;
#%% [extra_info]
#%% authors = B. Amadon, T. Cavignac
#%% keywords = DMFT, FAILS_IFMPI
#%% description = DFT+DMFT for SrVO3 using Hubard I code with KGB parallelism
#%% topics = DMFT, parallelism
#%% [yaml_test]
#%% file = ./t86.yaml
#%%<END TEST_INFO>
