# ---------------------------------------------------------------------------------------------------------
#
# NiO with 4 atoms in DMFT
# low cutoff, low number of k-points
# DMFT with TRIQS tested with KGB parallelization
#
# ---------------------------------------------------------------------------------------------------------
# -- Datasets and options
ndtset 2
jdtset 1 2
prtvol 4
pawprtvol -1
getden2 1

# -- Convergence Parameters
nstep1 100
nstep 1
nline2 10
nnsclo2 5
ecut  8
prtwf 0
# as this cutoff, test is not physical at all (filling of correlated orbitals are obviously wrong)

pawecutdg 20
tolvrs 1.0d-15
nband  34
occopt 3 tsmear 0.003675


##### PHYSICAL PARAMETERS
nsppol 2
nspden 2
natom 4 ntypat 2 typat 1 1 2 2
chkprim 0
#spinat 0 0 8  0 0  -7.99  0 0 0  0 0  0
spinat 0 0 0  0 0 0.0  0 0 0  0 0  0
znucl  28.0 8.0
rprim 0.0 1/2 1/2
      1/2 0.0 1/2
      1.0 1.0 0.0
xred 0 0 0
    0.0 0.0 0.5
    0.5 0.5 0.25
    0.5 0.5 0.75
acell   3*7.927

##### K-POINTS
kptrlatt 2 0 0 0 2 0 0 0 2
istwfk 1 1 1
chksymbreak 0

## == LDA+DMFT
usedmft1 0
usedmft 1
dmftbandi  9
dmftbandf 34
dmft_solv 6
dmft_iter 1
dmft_nwli 500
dmftcheck 0
dmft_mxsf 0.3
dmft_prtwan 1
dmft_wanrad 5.0
dmft_dc 8
dmftqmc_l 500
dmftqmc_therm 100
dmft_triqs_off_diag 1
dmftctqmc_basis 1
dmftctqmc_meas 100
dmftqmc_n 1.d3
dmft_triqs_wmax 1.0
dmft_prt_maxent 0

##### DFT+U
usepawu1    4
usepawu     14
dmatpuopt  1   # choose expression of the density matrix
lpawu   2  1   # U on d-orbitals of Ni, on p-orbitals of O
upawu1  0.00  0.0   # values in Hartree
jpawu1  0.0000 0.0  # values in Hartree
upawu2  0.30  0.2   # values in Hartree
jpawu2  0.1000 0.1  # values in Hartree

# == Parallelism
paral_kgb 1
np_spkpt 2
npband 2
npfft 1
bandpp 17

 pp_dirpath "$ABI_PSPDIR"
 pseudos "28ni.paw, 8o.2.paw"

#%%<BEGIN TEST_INFO>
#%% [setup]
#%% executable = abinit
#%% need_cpp_vars = HAVE_TRIQS_v3_2
#%% [files]
#%% [paral_info]
#%% nprocs_to_test = 4
#%% max_nprocs = 4
#%% [NCPU_4]
#%% files_to_test = t99_MPI4.abo, tolnlines=0, tolabs=0.0, tolrel= 0.0, fld_options=-medium
#%% [extra_info]
#%% keywords = PAW, DMFT, CTQMC, TRIQS
#%% authors = B. Amadon, E. Castiel
#%% description = Test KGB parallelization for DFT+DMFT calculations with TRIQS. NiO
#%%<END TEST_INFO>
