# _== Convergency and starting
# DATASET 1: LDA
# DATASET 2: LDA+DMFT
ndtset 2
jdtset 1 2

getden -1
ngfft 32 32 32
ngfftdg 32 32 32
nnsclo2 5

prtvol    4
pawprtvol 3

##### CONVERGENCE PARAMETERS
nstep1   30
nstep2    2
ecut     12 # low cutoff !
pawecutdg 20

tolvrs 1.0d-7
tolwfr_diago 1d-30
nband     28
nbdbuf    2
occopt 3 tsmear 1200 K

##### PHYSICAL PARAMETERS
natom 5 ntypat 3 typat 1 2 3 3 3
znucl  23.0 38.0 8.0
# V Sr O*3
xred 0.00 0.00 0.00
     0.50 0.50 0.50
     0.50 0.00 0.00
     0.00 0.50 0.00
     0.00 0.00 0.50
acell   3*7.2605
rprim 1.0 0.0 0.0    #Real space PRIMitive translations
      0.0 1.0 0.0
      0.0 0.0 1.0

# == Points k and symetries
ngkpt   2 2 2    #K - PoinTs grid : Real space LATTice
nshiftk 2
shiftk 1/2 1/2 1/2
       0.0 0.0 0.0
istwfk *1

nsppol 2
nspden 2

# == LDA+DMFT
usedmft1 0
usedmft2 1
dmftbandi 21
dmftbandf 23 # include V t2g bands
dmft_triqs_n_iw 500
dmft_iter 1
dmft_mxsf 0.7
dmft_dc 5
dmft_t2g 1

dmft_prtwan 1
dmft_triqs_dlr_wmax 1.
dmft_triqs_dlr_epsilon 1.d-4

dmft_solv 6 # Density-density TRIQS

# == DFT+U
usepawu1    4
usepawu     14
dmatpuopt  1   # The density matrix: the simplest expression.
lpawu  2 -1 -1
upawu1  0.00  0.0  0.0  eV
f4of2_sla3  0.0  0.0  0.0
upawu2  3.1333333333333333  0.0  0.0  eV
jpawu2  0.7583333333333333  0.0  0.0  eV

paral_kgb1 0
paral_kgb2 1
np_spkpt2 4
npband2 2
npfft2 1
nblock_lobpcg 1

dmft_triqs_length_cycle 10
dmft_triqs_basis 0
dmft_triqs_n_warmup_cycles_init 500
dmft_triqs_n_tau 300
dmft_triqs_off_diag 0
dmft_triqs_n_cycles 125000
dmft_triqs_n_warmup_cycles_restart 0

dmft_triqs_random_seed_a  33543
dmft_triqs_random_seed_b  95321

prtwf 0

pp_dirpath "$ABI_PSPDIR"
pseudos "23v.paw, 38sr.paw, 8o.paw"

#%%<BEGIN TEST_INFO>
#%% [setup]
#%% executable = abinit
#%% need_cpp_vars = HAVE_TRIQS_v3_2
#%% [shell]
#%% [paral_info]
#%% nprocs_to_test = 8
#%% max_nprocs = 8
#%% [NCPU_8]
#%% files_to_test = t99_MPI8.abo, tolnlines = 0, tolabs = 0.0, tolrel = 0.0, fld_options=-medium;
#%%                 t99_MPI8o_DS2_Wannier_functions_iatom0001_002, tolnlines = 0, tolabs = 0.0, tolrel = 0.0, fld_options=-medium;
#%% [extra_info]
#%% authors = B. Amadon, E. Castiel
#%% keywords = DMFT, TRIQS
#%% description = DFT+DMFT for SrVO3 with TRIQS: test KGB parallelization and Wannier functions with t2g orbitals
#%% topics = DMFT, parallelism
#%%<END TEST_INFO>
