# He atom in LDA

acell 3*5
diemac 1.0d0
diemix 0.5d0
ecut 200

irdwfk 1

ixc 6

 kptopt 0
kpt 3*0.25
natom 1
nband 1
nkpt 1
nline 2
nstep 2
nsym 8
ntypat 1
prtvol 10
rprim 1 0 0 0 1 0 0 0 1
symrel  1  0  0   0  1  0   0  0  1
       -1  0  0   0  1  0   0  0  1
        1  0  0   0 -1  0   0  0  1
       -1  0  0   0 -1  0   0  0  1
        1  0  0   0  1  0   0  0 -1
       -1  0  0   0  1  0   0  0 -1
        1  0  0   0 -1  0   0  0 -1
       -1  0  0   0 -1  0   0  0 -1
tnons 24*0
tolwfr 1.0d-14
typat 1
wtk 1 znucl 2
xred 3*0


 pp_dirpath "$ABI_PSPDIR"
 pseudos "02he.bare"

#%%<BEGIN TEST_INFO>
#%% [setup]
#%% executable = abinit
#%% input_prefix = t11o
#%% test_chain = t11.abi, t12.abi, t13.abi, t14.abi, t15.abi, t16.abi, t17.abi, t18.abi, t19.abi, t20.abi
#%% [files]
#%% files_to_test = t16.abo ,tolnlines = 0, tolabs = 0.000e+00, tolrel = 0.000e+00
#%% [paral_info]
#%% max_nprocs = 1
#%% [extra_info]
#%% keywords = NC
#%% authors = Unknown
#%% description = 
#%%   Isolated Helium atom (see above). Treated with LDA, "X-alpha" functional (ixc=6).
#%%   The total energy is -2.7172 Ha. For speed-up, it begins with the wavefunctions from test 11.
#%% topics = xc
#%%<END TEST_INFO>
