ndtset 6    jdtset 1 2 3 4 5 6

   ngkpt1  6  6  6
   ngkpt2  8  8  8
   ngkpt3 10 10 10
   ngkpt4 12 12 12
   ngkpt5 14 14 14
   ngkpt6 16 16 16


#Definition de la maille elementaire
#**********************************
   acell 3*1.0616530850E+01
   rprim 0.0 0.5 0.5
         0.5 0.0 0.5
         0.5 0.5 0.0

#Definition des atomes
#*********************
   natom 2
   ntypat 2
   znucl 13 33
   typat 1 2
   xred  0    0    0
         0.25 0.25 0.25
   ixc 3

#Definition de la procedure scf
#******************************
   iscf 5
   nstep  100

#Definition de la base d'ondes planes
#************************************
   ecut  5
   ecutsm 0.5
   dilatmx 1.05
   kptopt 1

   nshiftk   4
   shiftk   0.5 0.5 0.5
            0.5 0.0 0.0
            0.0 0.5 0.0
            0.0 0.0 0.5

#Structural relaxation
#*********************
   ionmov 3
   optcell 2
   toldfe 1.0d-14
   tolmxf 5.0d-6
   ntime 100

